# --- log file ---

# 1. Initialization
units metal
boundary p p p
atom_style molecular
neighbor 1.0 bin
neigh_modify delay 2 one 4000
pair_style hybrid lj/cut 14 sg 15 cb 30 # Fluid-fluid interactions have a cutoff of 15 Å, fluid-solid interactions have a cutoff of 30 Å
#kspace_style pppm 1.0e-4
# *--* C-C parameters *--*
bond_style harmonic
angle_style harmonic
dihedral_style opls
improper_style harmonic
# *--* C-C parameters *--*


# 2. Read the graphite platelet data file
read_data ../geometry/carbonPlatelets/final.data  extra/atom/types 1
Reading data file ...
  orthogonal box = (-30 -30 -15) to (30 30 15)
  1 by 1 by 1 MPI processor grid
  reading atoms ...
  480 atoms
  reading velocities ...
  480 velocities
  scanning bonds ...
  2 = max bonds/atom
  scanning angles ...
  3 = max angles/atom
  scanning dihedrals ...
  8 = max dihedrals/atom
  scanning impropers ...
  2 = max impropers/atom
  orthogonal box = (-30 -30 -15) to (30 30 15)
  1 by 1 by 1 MPI processor grid
  reading bonds ...
  676 bonds
  reading angles ...
  1268 angles
  reading dihedrals ...
  2394 dihedrals
  reading impropers ...
  396 impropers
Finding 1-2 1-3 1-4 neighbors ...
  special bond factors lj:    0        0        0       
  special bond factors coul:  0        0        0       
     3 = max # of 1-2 neighbors
     6 = max # of 1-3 neighbors
    18 = max # of 1-4 neighbors
    18 = max # of special neighbors
  special bonds CPU = 0.001 seconds
  read_data CPU = 0.018 seconds

mass 2 2.016 # For now at least, in accordance with the paper by Wang and Johnson,
             # 1998, the hydrogen atoms are regarded as simple spherical atoms

# 3. Define the potentials
# //////////////////////////////////////    C-C potentials    //////////////////////////////////////
pair_coeff 1 1 lj/cut 0.066 3.4
bond_coeff 1 469 1.4
angle_coeff 1 63 120
dihedral_coeff 1 0 7.25 0 0
improper_coeff 1 5 180
special_bonds lj 0.0 0.0 0.5
Finding 1-2 1-3 1-4 neighbors ...
  special bond factors lj:    0        0        0.5     
  special bond factors coul:  0        0        0       
     3 = max # of 1-2 neighbors
     6 = max # of 1-3 neighbors
    18 = max # of 1-4 neighbors
    18 = max # of special neighbors
  special bonds CPU = 0.000 seconds
# //////////////////////////////////////    C-C potentials    //////////////////////////////////////
# -------------------------------------------------------------------------------------------------
# //////////////////////////////////////    H-H potentials    //////////////////////////////////////
variable alpha equal 1.713
variable sigma equal 1.567
variable gamma equal 0.00993
variable c6 equal 12.14
variable c8 equal 215.2
variable c9 equal 143.1
variable c10 equal 4813.9
variable rc equal 8.321
pair_coeff 2 2 sg ${alpha} ${sigma} ${gamma} ${c6} ${c8} ${c9} ${c10} ${rc} # H-H potentials
pair_coeff 2 2 sg 1.713 ${sigma} ${gamma} ${c6} ${c8} ${c9} ${c10} ${rc} 
pair_coeff 2 2 sg 1.713 1.567 ${gamma} ${c6} ${c8} ${c9} ${c10} ${rc} 
pair_coeff 2 2 sg 1.713 1.567 0.00993 ${c6} ${c8} ${c9} ${c10} ${rc} 
pair_coeff 2 2 sg 1.713 1.567 0.00993 12.14 ${c8} ${c9} ${c10} ${rc} 
pair_coeff 2 2 sg 1.713 1.567 0.00993 12.14 215.2 ${c9} ${c10} ${rc} 
pair_coeff 2 2 sg 1.713 1.567 0.00993 12.14 215.2 143.1 ${c10} ${rc} 
pair_coeff 2 2 sg 1.713 1.567 0.00993 12.14 215.2 143.1 4813.9 ${rc} 
pair_coeff 2 2 sg 1.713 1.567 0.00993 12.14 215.2 143.1 4813.9 8.321 
#pair_coeff 2 2 sg 1.713 1.567 0.00993 12.14 215.2 143.1 4813.9 8.321 # H-H potentials
# //////////////////////////////////////    H-H potentials    //////////////////////////////////////
# -------------------------------------------------------------------------------------------------
# //////////////////////////////////////    C-H potentials    //////////////////////////////////////
variable sigma_CC equal 3.43 # Å
variable sigma_HH equal 3.075 # Å
variable sigma_CH_geo equal sqrt(${sigma_CC}*${sigma_HH}) # Å
variable sigma_CH_geo equal sqrt(3.43*${sigma_HH}) 
variable sigma_CH_geo equal sqrt(3.43*3.075) 
variable sigma_CH_arit equal 0.5*(${sigma_CC}+${sigma_HH}) # Å
variable sigma_CH_arit equal 0.5*(3.43+${sigma_HH}) 
variable sigma_CH_arit equal 0.5*(3.43+3.075) 

variable P_par equal 0.57 # Å^3
variable P_perp equal 1.995 # Å^3
variable P_h equal 0.81 # Å^3
variable E_h equal 2.337e5 # eV
variable E_c equal 1.39254e5 # eV

variable epsilon equal v_E_h*v_E_c*v_P_h*(4*v_P_par+2*v_P_perp)/(v_sigma_HH^6*(v_E_h+v_E_c))*0.001

pair_coeff 1 2 cb ${epsilon} ${sigma_CH_geo} ${P_par} ${P_perp} # C-H potential
pair_coeff 1 2 cb 0.524195104772241 ${sigma_CH_geo} ${P_par} ${P_perp} 
pair_coeff 1 2 cb 0.524195104772241 3.24765299870537 ${P_par} ${P_perp} 
pair_coeff 1 2 cb 0.524195104772241 3.24765299870537 0.57 ${P_perp} 
pair_coeff 1 2 cb 0.524195104772241 3.24765299870537 0.57 1.995 
#pair_coeff 1 2 lj/cut 0.3025 2.065
# //////////////////////////////////////    C-H potentials    //////////////////////////////////////

# 4. Generate the initial hydrogen atoms
lattice sc 3
Lattice spacing in x,y,z = 3 3 3
create_atoms 2 box ratio 0.005 428795
Created 20 atoms
  using lattice units in orthogonal box = (-30 -30 -15) to (30 30 15)
  create_atoms CPU = 0.001 seconds
lattice none 1
# Print the number of hydrogen atoms to file and delete the overlapping hydrogen atoms generated

variable hydrogen atom "type==2"
group hydrogen dynamic all var hydrogen
dynamic group hydrogen defined
variable nH equal count(hydrogen)
fix myat1 all ave/time 100 10 1000 v_nH file hydrogenCount.data

group           C type 1
480 atoms in group C
group           H2 type 2
20 atoms in group H2
delete_atoms    overlap 4 H2 C
System init for delete_atoms ...
Generated 0 of 1 mixed pair_coeff terms from geometric mixing rule
Neighbor list info ...
  update: every = 1 steps, delay = 2 steps, check = yes
  max neighbors/atom: 4000, page size: 100000
  master list distance cutoff = 31
  ghost atom cutoff = 31
  binsize = 15.5, bins = 4 4 2
  5 neighbor lists, perpetual/occasional/extra = 4 1 0
  (1) command delete_atoms, occasional
      attributes: full, newton on
      pair build: full/bin
      stencil: full/bin/3d
      bin: standard
  (2) pair lj/cut, perpetual, skip trim from (5)
      attributes: half, newton on, cut 15
      pair build: skip/trim
      stencil: none
      bin: none
  (3) pair sg, perpetual, skip trim from (5)
      attributes: half, newton on, cut 16
      pair build: skip/trim
      stencil: none
      bin: none
  (4) pair cb, perpetual, skip from (5)
      attributes: half, newton on
      pair build: skip
      stencil: none
      bin: none
  (5) neighbor class addition, perpetual
      attributes: half, newton on
      pair build: half/bin/newton
      stencil: half/bin/3d
      bin: standard
WARNING: Ignoring 'compress yes' for molecular system (src/delete_atoms.cpp:141)
Deleted 1 atoms, new total = 499
reset_atoms     id sort yes
Resetting atom IDs ...
Generated 0 of 1 mixed pair_coeff terms from geometric mixing rule
Neighbor list info ...
  update: every = 1 steps, delay = 2 steps, check = yes
  max neighbors/atom: 4000, page size: 100000
  master list distance cutoff = 31
  ghost atom cutoff = 31
  binsize = 15.5, bins = 4 4 2
  4 neighbor lists, perpetual/occasional/extra = 4 0 0
  (1) pair lj/cut, perpetual, skip trim from (4)
      attributes: half, newton on, cut 15
      pair build: skip/trim
      stencil: none
      bin: none
  (2) pair sg, perpetual, skip trim from (4)
      attributes: half, newton on, cut 16
      pair build: skip/trim
      stencil: none
      bin: none
  (3) pair cb, perpetual, skip from (4)
      attributes: half, newton on
      pair build: skip
      stencil: none
      bin: none
  (4) neighbor class addition, perpetual
      attributes: half, newton on
      pair build: half/bin/newton
      stencil: half/bin/3d
      bin: standard
Finding 1-2 1-3 1-4 neighbors ...
  special bond factors lj:    0        0        0.5     
  special bond factors coul:  0        0        0       
     3 = max # of 1-2 neighbors
     6 = max # of 1-3 neighbors
    18 = max # of 1-4 neighbors
    18 = max # of special neighbors
  special bonds CPU = 0.000 seconds

# Define the atoms in the outer part of each platelet which will be fixed
variable        L_min equal 11.2 # all carbons are fixed
region          rfix_out block -${L_min} ${L_min} -${L_min} ${L_min} -${L_min} ${L_min} units box side out
region          rfix_out block -11.2 ${L_min} -${L_min} ${L_min} -${L_min} ${L_min} units box side out
region          rfix_out block -11.2 11.2 -${L_min} ${L_min} -${L_min} ${L_min} units box side out
region          rfix_out block -11.2 11.2 -11.2 ${L_min} -${L_min} ${L_min} units box side out
region          rfix_out block -11.2 11.2 -11.2 11.2 -${L_min} ${L_min} units box side out
region          rfix_out block -11.2 11.2 -11.2 11.2 -11.2 ${L_min} units box side out
region          rfix_out block -11.2 11.2 -11.2 11.2 -11.2 11.2 units box side out
region          rfix_in block -${L_min} ${L_min} -${L_min} ${L_min} -${L_min} ${L_min} units box side in
region          rfix_in block -11.2 ${L_min} -${L_min} ${L_min} -${L_min} ${L_min} units box side in
region          rfix_in block -11.2 11.2 -${L_min} ${L_min} -${L_min} ${L_min} units box side in
region          rfix_in block -11.2 11.2 -11.2 ${L_min} -${L_min} ${L_min} units box side in
region          rfix_in block -11.2 11.2 -11.2 11.2 -${L_min} ${L_min} units box side in
region          rfix_in block -11.2 11.2 -11.2 11.2 -11.2 ${L_min} units box side in
region          rfix_in block -11.2 11.2 -11.2 11.2 -11.2 11.2 units box side in
group           fix_region_group region rfix_out
107 atoms in group fix_region_group
group           mob_region_group region rfix_in
392 atoms in group mob_region_group
group           fix_carbons intersect fix_region_group C
88 atoms in group fix_carbons
group           mob_carbons intersect mob_region_group C
392 atoms in group mob_carbons
group           mob_atoms   union mob_carbons H2
411 atoms in group mob_atoms

# 5. Equilibration step
thermo 100
variable        T equal 300
velocity        mob_atoms create ${T} 1234567 dist gaussian
velocity        mob_atoms create 300 1234567 dist gaussian
# fix             nve1 mob_atoms nve
# compute         tcar mob_carbons temp
# fix             myber1 mob_atoms temp/berendsen ${T} ${T} 200
# fix_modify      myber1 temp tcar
# compute         tgas H2 temp
# fix             myber2 mob_atoms temp/berendsen ${T} ${T} 200
# fix_modify      myber2 temp tgas
#----------------------------------------------------------------
compute_modify thermo_temp dynamic yes
compute ctH2 H2 temp
compute_modify ctH2 dynamic yes
fix mynvt1 H2 nvt temp ${T} ${T} 0.1
fix mynvt1 H2 nvt temp 300 ${T} 0.1
fix mynvt1 H2 nvt temp 300 300 0.1
fix_modify mynvt1 temp ctH2
WARNING: Temperature for fix modify is not for group all (src/fix_nh.cpp:1399)
compute ctC mob_carbons temp
fix mynvt2 mob_carbons nvt temp ${T} ${T} 0.1
fix mynvt2 mob_carbons nvt temp 300 ${T} 0.1
fix mynvt2 mob_carbons nvt temp 300 300 0.1
fix_modify mynvt2 temp ctC
WARNING: Temperature for fix modify is not for group all (src/fix_nh.cpp:1399)
timestep 0.0005
#thermo_style custom step temp pe ke etotal press vol
#----------------------------------------------------------------
# fix             npt1 mob_atoms npt temp ${T} ${T} 200 iso 113 113 2000
fix             myspr C spring/self 5

# Fix the motion of the outer carbons
fix             sf fix_carbons setforce 0.0 0.0 0.0
velocity        fix_carbons set 0.0 0.0 0.0

dump            ./dumps/test_dump all atom 10 test.lammpstrj

run 20000

CITE-CITE-CITE-CITE-CITE-CITE-CITE-CITE-CITE-CITE-CITE-CITE-CITE

Your simulation uses code contributions which should be cited:

- Type Label Framework: https://doi.org/10.1021/acs.jpcb.3c08419

@Article{Gissinger24,
 author = {Jacob R. Gissinger, Ilia Nikiforov, Yaser Afshar, Brendon Waters, Moon-ki Choi, Daniel S. Karls, Alexander Stukowski, Wonpil Im, Hendrik Heinz, Axel Kohlmeyer, and Ellad B. Tadmor},
 title = {Type Label Framework for Bonded Force Fields in LAMMPS},
 journal = {J. Phys. Chem. B},
 year =    2024,
 volume =  128,
 number =  13,
 pages =   {3282–-3297}
}

CITE-CITE-CITE-CITE-CITE-CITE-CITE-CITE-CITE-CITE-CITE-CITE-CITE

Generated 0 of 1 mixed pair_coeff terms from geometric mixing rule
Per MPI rank memory allocation (min/avg/max) = 13.84 | 13.84 | 13.84 Mbytes
   Step          Temp          E_pair         E_mol          TotEng         Press     
         0   246.98795      301.7415       18377.714      18695.354     -66394.152    
       100   284.89206      288.41635      18385.036      18691.792     -65890.939    
       200   349.31397      267.58458      18387.825      18677.895     -66752.231    
       300   426.04435      232.88961      18390.391      18650.706     -66317.791    
       400   403.85663      201.71137      18390.988      18618.696     -66037.336    
       500   308.20247      199.44009      18391.089      18610.368     -66509.073    
       600   277.82539      198.71054      18389.536      18606.13      -65597.6      
       700   258.74835      198.86647      18388.322      18603.845     -65337.495    
       800   251.06449      197.62658      18388.325      18602.113     -65923.955    
       900   245.17954      198.3622       18386.786      18600.93      -65411.706    
      1000   242.38594      196.98174      18387.454      18600.038     -65861.904    
      1100   230.98972      196.86496      18387.736      18599.47      -65696.239    
      1200   333.53435      187.68348      18386.847      18596.001     -65371.177    
      1300   310.70418      176.50973      18388.968      18585.479     -66859.66     
      1400   266.59533      170.5262       18389.176      18576.864     -66610.138    
      1500   260.37297      168.91231      18389.338      18575.011     -66655.141    
      1600   244.05708      167.47444      18391.086      18574.271     -68028.004    
      1700   249.587        168.24706      18390.017      18574.331     -66929.593    
      1800   254.94458      167.93662      18389.671      18574.018     -67200.952    
      1900   276.8638       167.2366       18388.578      18573.637     -67460.786    
      2000   244.18479      167.40679      18389.979      18573.104     -66809.991    
      2100   343.38657      158.51158      18389.175      18569.791     -67001.933    
      2200   303.77804      142.83458      18389.977      18552.366     -67326.765    
      2300   287.51294      137.82472      18390.819      18547.151     -66978.286    
      2400   356.14029      127.46102      18389.439      18539.826     -66976.058    
      2500   266.98189      126.21615      18390.211      18533.614     -67958.23     
      2600   253.98901      126.42691      18389.345      18532.121     -66686.111    
      2700   233.3166       125.1455       18391.05       18531.214     -68234.985    
      2800   231.5585       126.67324      18389.016      18530.595     -67272.11     
      2900   241.98285      127.25615      18387.522      18530.355     -66279.386    
      3000   228.42581      125.39105      18390.128      18530.223     -67516.959    
      3100   250.49028      126.93213      18387.615      18530.672     -66890.331    
      3200   245.81413      126.69722      18388.792      18531.313     -67053.839    
      3300   257.61338      126.4242       18389.263      18532.27      -66980.325    
      3400   245.89951      125.78788      18391.248      18532.865     -68226.58     
      3500   251.96662      125.94425      18390.831      18532.995     -67763.036    
      3600   256.49381      125.76021      18390.973      18533.244     -67491.884    
      3700   258.65365      123.91934      18391.565      18532.134     -67719.517    
      3800   296.14516      120.65762      18390.5        18530.221     -67075.962    
      3900   348.71048      109.13022      18388.855      18520.432     -67563.435    
      4000   283.53933      101.7269       18390.013      18509.992     -66908.007    
      4100   253.66698      98.54946       18392.197      18507.075     -68051.866    
      4200   259.78907      100.65775      18388.16       18505.541     -66759.044    
      4300   230.40707      99.158707      18390.62       18504.61      -67026.13     
      4400   225.34475      99.448678      18390.077      18504.032     -67072.793    
      4500   236.96126      100.32998      18387.894      18503.478     -66771.951    
      4600   239.56872      99.659356      18388.429      18503.509     -67504.681    
      4700   237.10143      98.908809      18389.375      18503.546     -67810.86     
      4800   257.43089      99.441145      18387.975      18503.987     -66998.072    
      4900   244.2822       99.726939      18389.722      18505.174     -67190.885    
      5000   247.71576      99.134595      18390.459      18505.54      -67502.924    
      5100   255.40927      99.753873      18389.473      18505.668     -67291.867    
      5200   239.90083      98.2871        18391.8        18505.53      -67713.338    
      5300   266.25291      100.4049       18387.666      18505.21      -66758.058    
      5400   236.13086      100.12292      18389.668      18504.991     -67413.954    
      5500   247.99835      98.95423       18389.771      18504.689     -67698.059    
      5600   311.7104       94.374895      18389.063      18503.503     -67569.548    
      5700   282.69874      87.648681      18389.719      18495.565     -67150.371    
      5800   300.83216      80.017328      18390.052      18489.434     -67242.125    
      5900   263.19595      72.411107      18390.959      18480.313     -67688.079    
      6000   251.39575      72.246709      18389.091      18477.52      -66912.205    
      6100   254.33172      71.358643      18388.705      18476.435     -67186.589    
      6200   246.69059      71.557554      18388.219      18475.656     -67088.939    
      6300   260.24988      70.953076      18387.409      18475.114     -67776.567    
      6400   243.29446      72.036147      18387.2        18474.897     -66699.833    
      6500   224.04314      71.917424      18388.629      18474.968     -66657.9      
      6600   232.97149      70.354785      18390.086      18475.438     -67610.922    
      6700   245.08542      71.087529      18389.271      18476.135     -67222.69     
      6800   261.25565      70.642227      18389.428      18476.888     -68205.503    
      6900   263.92708      70.687522      18389.489      18477.166     -67550.013    
      7000   260.23599      71.446595      18389.132      18477.331     -67317.987    
      7100   254.86367      70.275666      18390.479      18477.16      -69279.387    
      7200   238.03377      70.498329      18390.88       18476.701     -68052.193    
      7300   245.90464      71.328985      18389.257      18476.415     -67795.142    
      7400   248.53212      71.855127      18388.49       18476.343     -66773.029    
      7500   277.48121      68.267085      18389.736      18475.865     -66767.961    
      7600   342.0468       63.10426       18388.542      18473.664     -67170.514    
      7700   264.56096      58.216474      18389.927      18465.174     -67317.91     
      7800   252.50849      58.217492      18389.084      18463.555     -67458.686    
      7900   248.47865      56.906926      18389.748      18462.65      -68303.847    
      8000   238.74867      55.866745      18390.028      18461.264     -68613.308    
      8100   230.56395      56.393821      18389.208      18460.443     -68320.189    
      8200   251.93634      55.75228       18388.366      18460.336     -67709.344    
      8300   234.59005      54.791405      18390.381      18460.273     -68362.571    
      8400   242.24471      55.513501      18389.215      18460.322     -67803.757    
      8500   225.28899      55.512762      18390.591      18460.606     -68165.273    
      8600   252.28775      55.870024      18388.593      18460.703     -67785.856    
      8700   247.58014      56.419263      18388.683      18461.039     -67750.477    
      8800   248.94734      55.830364      18389.434      18461.29      -67396.204    
      8900   242.30761      56.193006      18389.675      18461.465     -67775.252    
      9000   253.96874      55.823409      18389.854      18462.026     -67912.867    
      9100   243.4594       56.134787      18390.713      18462.52      -68199.478    
      9200   247.76131      56.0248        18390.422      18462.396     -68102.124    
      9300   248.75342      55.655968      18390.328      18461.997     -68454.862    
      9400   237.83738      55.872419      18390.001      18461.183     -68073.574    
      9500   240.57887      56.175611      18388.965      18460.627     -68243.963    
      9600   227.68389      55.650897      18389.955      18460.262     -68085.636    
      9700   240.42665      55.684333      18388.991      18460.152     -67850.174    
      9800   244.82152      56.454257      18388.403      18460.617     -67568.786    
      9900   253.09525      56.535245      18388.553      18461.38      -67628.61     
     10000   253.63207      56.151237      18389.146      18461.624     -67874.893    
     10100   250.97854      58.251862      18387.299      18461.707     -66548.34     
     10200   235.7235       56.806308      18389.684      18461.664     -67083.548    
     10300   258.32867      56.054487      18388.958      18461.642     -67664.905    
     10400   240.71079      57.469402      18388.779      18461.743     -67025.228    
     10500   237.71229      55.801756      18390.42       18461.524     -67793.852    
     10600   246.0612       56.438171      18388.864      18461.142     -67415.589    
     10700   235.9609       54.457338      18390.691      18460.337     -67731.078    
     10800   245.73807      56.20154       18388.096      18460.116     -67833.903    
     10900   242.77333      56.049003      18388.252      18459.928     -67441.198    
     11000   238.84867      56.198284      18388.469      18460.042     -67321.898    
     11100   241.75098      56.183847      18388.923      18460.668     -67459.844    
     11200   244.38288      56.362887      18389.631      18461.725     -67628.532    
     11300   268.27813      57.28125       18387.876      18462.427     -67671.443    
     11400   249.53295      57.753204      18388.822      18462.638     -66576.235    
     11500   255.2887       57.131976      18388.822      18462.387     -67332.788    
     11600   248.46384      55.64055       18390.493      18462.127     -67943.518    
     11700   253.13007      56.039219      18389.414      18461.747     -67536.621    
     11800   245.92827      55.730775      18389.74       18461.302     -67935.236    
     11900   240.40033      56.304378      18388.868      18460.647     -67549.922    
     12000   235.16703      55.748906      18389.134      18460.021     -68376.289    
     12100   241.22969      56.019736      18388.176      18459.724     -67922.274    
     12200   230.9296       56.93156       18387.973      18459.77      -66812.45     
     12300   244.83015      57.512907      18386.894      18460.167     -66095.049    
     12400   247.7077       57.033682      18387.849      18460.828     -67544.374    
     12500   247.43896      56.099503      18389.362      18461.389     -67442.706    
     12600   255.57719      57.176055      18388.397      18462.025     -67142.557    
     12700   245.76538      57.213511      18389.337      18462.37      -66548.925    
     12800   246.59776      56.49499       18389.971      18462.34      -66816.237    
     12900   258.9684       56.731811      18388.971      18462.373     -67371.526    
     13000   248.88034      56.143037      18389.725      18461.889     -67671.738    
     13100   260.72988      56.676655      18387.8        18461.26      -67573.155    
     13200   251.64887      55.562188      18388.9        18460.661     -68450.388    
     13300   238.84358      56.944839      18388.288      18460.607     -68096.012    
     13400   242.9917       56.415889      18388.622      18460.679     -67573.311    
     13500   231.61544      55.708004      18390.165      18460.782     -68578.429    
     13600   241.04774      56.784787      18388.784      18461.085     -67721.373    
     13700   251.00548      57.033095      18387.88       18461.071     -67055.45     
     13800   240.27578      55.899598      18389.971      18461.337     -67619.375    
     13900   247.28716      56.519572      18389.251      18461.689     -67436.292    
     14000   247.39872      56.220836      18389.751      18461.898     -67590.714    
     14100   255.29169      56.029979      18389.553      18462.017     -67887.765    
     14200   258.2708       56.390903      18389.028      18462.044     -67518.578    
     14300   242.83976      56.660536      18389.627      18461.92      -67598.481    
     14400   248.5753       55.791856      18389.816      18461.609     -68313.484    
     14500   244.72523      55.721127      18389.451      18460.926     -67558.851    
     14600   232.84928      56.556015      18388.839      18460.384     -67534.973    
     14700   232.85097      55.79252       18389.371      18460.153     -68236.672    
     14800   252.50682      56.269255      18387.731      18460.254     -67331.004    
     14900   239.74515      56.031968      18389.452      18460.917     -67695.828    
     15000   245.47487      56.79568       18389.014      18461.611     -67643.12     
     15100   238.74574      56.93653       18389.657      18461.962     -66887.363    
     15200   250.49754      56.210073      18389.825      18462.16      -67964.944    
     15300   266.05031      56.379246      18388.571      18462.077     -67576.745    
     15400   246.97867      56.645639      18389.314      18461.858     -67660.488    
     15500   238.60824      56.56098       18389.525      18461.446     -67722.031    
     15600   239.89737      56.854686      18388.809      18461.107     -67028.952    
     15700   239.74718      56.527582      18388.653      18460.614     -67687.258    
     15800   240.35898      55.811971      18388.899      18460.183     -67519.684    
     15900   220.44061      56.091192      18389.279      18459.56      -67725.074    
     16000   238.8783       55.020055      18389.139      18459.536     -67802.21     
     16100   230.81964      56.870874      18388.425      18460.154     -67352.081    
     16200   244.87088      56.124943      18389.221      18461.108     -67820.367    
     16300   292.22469      53.41603       18389.38       18461.607     -67607.085    
     16400   305.02219      45.964629      18390.827      18456.427     -67101.272    
     16500   260.38798      43.246758      18391.86       18451.868     -67774.485    
     16600   254.48365      43.209441      18390.761      18450.352     -68206.181    
     16700   240.3075       43.574137      18389.528      18448.571     -67059.762    
     16800   257.84784      42.994172      18388.073      18447.666     -68264.917    
     16900   238.5682       42.603144      18389.202      18447.162     -67413.491    
     17000   230.1772       42.300013      18389.823      18446.94      -67569.698    
     17100   233.62513      43.663279      18388.206      18446.909     -66818.687    
     17200   231.38446      42.320716      18390.012      18447.227     -67825.349    
     17300   251.62159      42.88471       18388.763      18447.845     -67506.883    
     17400   229.94223      42.806766      18391.232      18448.84      -67957.449    
     17500   275.40488      42.779268      18389          18449.507     -67315.103    
     17600   260.28114      43.145808      18389.913      18449.813     -67727.899    
     17700   268.16401      42.820012      18389.668      18449.75      -68122.828    
     17800   266.58535      43.4185        18388.509      18449.088     -67357.489    
     17900   247.32599      42.101992      18390.572      18448.595     -68368.528    
     18000   237.90673      42.571026      18390.632      18448.517     -68387.693    
     18100   225.95828      43.600145      18390.028      18448.173     -67662.951    
     18200   237.43618      41.862988      18390.862      18448.009     -68597.049    
     18300   233.88345      42.099536      18390.464      18447.619     -68703.841    
     18400   248.18613      42.63675       18388.712      18447.324     -67839.322    
     18500   244.56473      42.918584      18388.894      18447.556     -67689.949    
     18600   242.81136      42.345776      18389.809      18447.785     -68423.45     
     18700   267.49644      42.690575      18388.131      18448.04      -67102.731    
     18800   250.14643      43.19327       18389.314      18448.61      -67214.629    
     18900   251.14011      43.11061       18389.718      18448.995     -67623.376    
     19000   248.48225      42.654592      18390.6        18449.25      -67607.587    
     19100   237.15039      42.942156      18390.876      18449.084     -67106.189    
     19200   256.68848      42.68098       18389.354      18448.558     -67388.712    
     19300   235.98998      42.856341      18389.73       18447.777     -67520.846    
     19400   247.04686      42.45449       18388.781      18447.138     -68064.999    
     19500   250.15193      42.847524      18387.817      18446.767     -67239.637    
     19600   237.06728      42.158434      18389.642      18447.061     -68156.17     
     19700   246.50435      41.045863      18390.405      18447.318     -68660.437    
     19800   245.51057      42.777245      18389.398      18447.979     -68348.565    
     19900   239.70013      42.37072       18390.721      18448.521     -68054.385    
     20000   253.04441      42.82995       18389.634      18448.752     -67777.722    
Loop time of 39.0465 on 1 procs for 20000 steps with 499 atoms

Performance: 22.127 ns/day, 1.085 hours/ns, 512.210 timesteps/s, 255.593 katom-step/s
99.6% CPU use with 1 MPI tasks x no OpenMP threads

MPI task timing breakdown:
Section |  min time  |  avg time  |  max time  |%varavg| %total
---------------------------------------------------------------
Pair    | 28.335     | 28.335     | 28.335     |   0.0 | 72.57
Bond    | 7.04       | 7.04       | 7.04       |   0.0 | 18.03
Neigh   | 2.2631     | 2.2631     | 2.2631     |   0.0 |  5.80
Comm    | 0.34497    | 0.34497    | 0.34497    |   0.0 |  0.88
Output  | 0.53877    | 0.53877    | 0.53877    |   0.0 |  1.38
Modify  | 0.43725    | 0.43725    | 0.43725    |   0.0 |  1.12
Other   |            | 0.08766    |            |       |  0.22

Nlocal:            499 ave         499 max         499 min
Histogram: 1 0 0 0 0 0 0 0 0 0
Nghost:           6053 ave        6053 max        6053 min
Histogram: 1 0 0 0 0 0 0 0 0 0
Neighs:              0 ave           0 max           0 min
Histogram: 1 0 0 0 0 0 0 0 0 0

Total # of neighbors = 0
Ave neighs/atom = 0
Ave special neighs/atom = 15.006012
Neighbor list builds = 849
Dangerous builds = 0

# 6. Production step
variable tfac equal 3.0/3.0
# variable xlo equal xlo+0.1
# variable xhi equal xhi-0.1
# variable ylo equal ylo+0.1
# variable yhi equal yhi-0.1
# variable zlo equal zlo+0.1
# variable zhi equal zhi-0.1
# region system block ${xlo} ${xhi} ${ylo} ${yhi} ${zlo} ${zhi}
fix fgcmc H2 gcmc 100 100 0 2 65899 ${T} -0.5 0.1     tfac_insert ${tfac} group H2     pressure 113 #region system
fix fgcmc H2 gcmc 100 100 0 2 65899 300 -0.5 0.1     tfac_insert ${tfac} group H2     pressure 113 
fix fgcmc H2 gcmc 100 100 0 2 65899 300 -0.5 0.1     tfac_insert 1 group H2     pressure 113 
run 45000
Generated 0 of 1 mixed pair_coeff terms from geometric mixing rule
WARNING: Fix gcmc using full_energy option (src/MC/fix_gcmc.cpp:544)
0 atoms in group FixGCMC:gcmc_exclusion_group:fgcmc
Per MPI rank memory allocation (min/avg/max) = 14.86 | 14.86 | 14.86 Mbytes
   Step          Temp          E_pair         E_mol          TotEng         Press     
     20000   253.04441      42.82995       18389.634      18448.752     -67777.722    
     20100   458.707        8.3715523      18393.893      18433.749     -68479.43     
     20200   765.84931     -68.471676      18396.437      18384.788     -68007.459    
     20300   1345.967      -225.47001      18406.621      18287.453     -71087.079    
     20400   1517.0527     -396.28672      18422.903      18153.882     -70635.273    
     20500   1553.9189     -547.51568      18426.092      18012.751     -72929.684    
     20600   1903.2795     -796.80914      18435.771      17809.698     -74517.437    
     20700   1680.1628     -979.47783      18432.041      17608.497     -74953.55     
     20800   2034.3585     -1324.2157      18438.128      17309.556     -78697.054    
     20900   1694.4672     -1528.1706      18431.243      17071.943     -80321.68     
     21000   1696.4958     -1748.9086      18428.218      16850.574     -79285.529    
     21100   1677.4876     -1986.1937      18429.144      16617.067     -84164.37     
     21200   1586.5036     -2203.5552      18423.825      16388.634     -84184.546    
     21300   1553.2975     -2396.6352      18416.103      16189.127     -85357.621    
     21400   1529.9803     -2635.308       18420.633      15957.578     -89425.265    
     21500   1607.966      -2880.2481      18420.33       15724.026     -88944.757    
     21600   1499.5326     -3114.5054      18422.417      15481.389     -91150.689    
     21700   1289.9405     -3292.5311      18416.889      15277.09      -92352.088    
     21800   1433.1326     -3537.1278      18416.9        15054.09      -92321.381    
     21900   1515.8586     -3764.6065      18413.118      14836.026     -91833.84     
     22000   1319.9207     -3958.3233      18415.951      14624.829     -97264.628    
     22100   1313.265      -4158.2242      18413.787      14423.957     -98143.707    
     22200   1395.2096     -4379.8407      18413.882      14217.271     -98323.089    
     22300   1361.3767     -4620.431       18422.149      13983.673     -100283.3     
     22400   1284.7685     -4794.3569      18411.075      13793.25      -100749.13    
     22500   1318.2384     -5011.8403      18413.411      13585.768     -101595.47    
     22600   1273.0197     -5223.5817      18416.693      13373.952     -100680.86    
     22700   1383.9065     -5471.7791      18416.023      13143.342     -103751.19    
     22800   1273.5889     -5677.7844      18411.416      12920.809     -106396       
     22900   1266.7146     -5874.0961      18411.642      12726.169     -106017.5     
     23000   1236.6869     -6106.7624      18415.663      12496.09      -110224.76    
     23100   1167.2773     -6293.4525      18409.954      12296.051     -108652.85    
     23200   1135.685      -6448.0157      18405.556      12133.699     -109695.55    
     23300   1090.4794     -6648.3945      18410.367      11933.938     -112272.07    
     23400   954.40923     -6791.0631      18407.137      11768.432     -111711.37    
     23500   978.00039     -6988.8446      18407.926      11577.987     -112216.87    
     23600   930.52142     -7136.2611      18409.486      11426.341     -114268.57    
     23700   870.02995     -7275.9337      18406.032      11275.397     -114968.14    
     23800   1099.9948     -7488.6735      18407.469      11105.059     -113672.21    
     23900   1177.7054     -7733.3814      18414.49       10885.706     -116541.41    
     24000   1226.8653     -7947.1475      18411.549      10679.126     -120820.43    
     24100   1148.2394     -8154.3644      18409.309      10459.321     -121482.35    
     24200   1075.9191     -8320.5394      18412.46       10285.511     -122048.13    
     24300   1009.3756     -8498.0152      18410.804      10097.276     -122881.56    
     24400   1006.7197     -8688.0977      18410.237      9909.3949     -124123.86    
     24500   975.71464     -8843.0777      18403.613      9744.924      -123650.59    
     24600   943.60341     -9029.6665      18410.61       9561.9473     -128174.86    
     24700   1090.3663     -9258.0455      18414.624      9369.399      -125664.49    
     24800   967.2636      -9439.5205      18415.826      9167.849      -126619.45    
     24900   971.89044     -9618.8235      18415.505      8990.7748     -128771.13    
     25000   912.06203     -9766.9752      18408.91       8826.5552     -130490.41    
     25100   865.93534     -9920.8443      18416.213      8672.5557     -129778.06    
     25200   817.71827     -10054.635      18412.18       8526.3459     -131429.82    
     25300   797.41242     -10182.715      18412.226      8395.2536     -131963.81    
     25400   790.02337     -10310.481      18412.427      8267.8878     -131554.24    
     25500   829.73061     -10452.402      18412.749      8136.561      -130577.23    
     25600   712.60802     -10562.143      18413.209      8003.7874     -132678.86    
     25700   726.40764     -10691.428      18408.805      7874.7459     -135841.93    
     25800   746.4751      -10821.884      18410.811      7752.3807     -134234.52    
     25900   678.75069     -10930.293      18413.486      7633.2199     -133970.6     
     26000   682.23802     -11059.523      18412.795      7506.0101     -137511.21    
     26100   673.01886     -11193.036      18412.02       7371.4858     -137402.86    
     26200   686.87217     -11324.564      18414.522      7247.5525     -138325.19    
     26300   739.32711     -11458.712      18412.945      7125.5817     -138223.82    
     26400   737.38116     -11615.838      18419.088      6976.816      -138733.71    
     26500   702.162       -11736.081      18417.088      6848.6429     -139316.44    
     26600   764.34486     -11889.283      18419.05       6714.028      -139683.85    
     26700   674.74251     -11993.163      18414.56       6585.8014     -141892.83    
     26800   725.97453     -12121.957      18416.699      6473.5065     -143879.05    
     26900   662.02093     -12241.767      18418.151      6340.9408     -141362.32    
     27000   683.91982     -12374.855      18422.631      6219.2785     -140774.41    
     27100   672.56973     -12483.953      18415.474      6101.5692     -143603.76    
     27200   657.59744     -12602.686      18421.65       5987.2665     -145251.9     
     27300   642.61048     -12723.532      18424.429      5867.2733     -143584.53    
     27400   696.81281     -12865.28       18422.895      5740.457      -145149.18    
     27500   693.15785     -13003.327      18425.809      5606.2464     -147895.49    
     27600   621.53479     -13105.773      18423.789      5483.918      -147130.6     
     27700   641.26706     -13231.353      18423.263      5365.0676     -146101.93    
     27800   622.18863     -13337.817      18424.553      5255.868      -147797.7     
     27900   613.12745     -13440.823      18419.435      5146.2323     -148597.03    
     28000   642.27746     -13580.234      18429.067      5026.1657     -146956.11    
     28100   609.75326     -13682.628      18430.967      4917.8737     -148359.22    
     28200   549.418       -13762.277      18426.572      4817.765      -149023.5     
     28300   