# --- log file ---

# 1. Initialization
units real
boundary p p p
atom_style molecular
neighbor 1 bin
neigh_modify delay 3 one 6000
pair_style hybrid lj/cut 14 sg 15 cb 30 # Fluid-fluid interactions have a cutoff of 15 Å, fluid-solid interactions have a cutoff of 30 Å
#kspace_style pppm 1.0e-4
# No space style is needed for the absence of charges
# *--* C-C parameters *--*
bond_style harmonic
angle_style harmonic
dihedral_style opls
improper_style harmonic
# *--* C-C parameters *--*


# 2. Read the graphite platelet data file
# 3. Define potentials parameters
read_data ../geometry/carbonPlatelets/simulation_data/test.data  extra/atom/types 1
Reading data file ...
  orthogonal box = (-12.5 -12.5 -15) to (12.5 12.5 15)
  1 by 2 by 3 MPI processor grid
  reading atoms ...
  64 atoms
  reading velocities ...
  64 velocities
  scanning bonds ...
  2 = max bonds/atom
  scanning angles ...
  3 = max angles/atom
  scanning dihedrals ...
  8 = max dihedrals/atom
  scanning impropers ...
  2 = max impropers/atom
  orthogonal box = (-12.5 -12.5 -15) to (12.5 12.5 15)
  1 by 2 by 3 MPI processor grid
  reading bonds ...
  80 bonds
  reading angles ...
  132 angles
  reading dihedrals ...
  218 dihedrals
  reading impropers ...
  36 impropers
Finding 1-2 1-3 1-4 neighbors ...
  special bond factors lj:    0        0        0       
  special bond factors coul:  0        0        0       
     3 = max # of 1-2 neighbors
     6 = max # of 1-3 neighbors
    18 = max # of 1-4 neighbors
    18 = max # of special neighbors
  special bonds CPU = 0.001 seconds
  read_data CPU = 0.011 seconds
include PARM.lammps

#////////////////////////////////////////////////////////////////////////////////////////////////////////////////////////////////
#//     Filename: PARM.lammps
#//     File Type: LAMMPS input script
#//     Description: This script defines the parameters for the simulation of hydrogen absorption in graphite platelets.
#//     Author: Edoardo Cabiati
#//     Date: 2024-07-27
#////////////////////////////////////////////////////////////////////////////////////////////////////////////////////////////////

mass 2 2.016 # For now at least, in accordance with the paper by Wang and Johnson,
             # 1998, the hydrogen atoms are regarded as simple spherical atoms

# //////////////////////////////////////    C-C potentials    //////////////////////////////////////
pair_coeff 1 1 lj/cut 0.066 3.4
bond_coeff 1 469 1.4
angle_coeff 1 63 120
dihedral_coeff 1 0 7.25 0 0
improper_coeff 1 5 180
special_bonds lj 0.0 0.0 0.5
Finding 1-2 1-3 1-4 neighbors ...
  special bond factors lj:    0        0        0.5     
  special bond factors coul:  0        0        0       
     3 = max # of 1-2 neighbors
     6 = max # of 1-3 neighbors
    18 = max # of 1-4 neighbors
    18 = max # of special neighbors
  special bonds CPU = 0.001 seconds
# //////////////////////////////////////    C-C potentials    //////////////////////////////////////
# -------------------------------------------------------------------------------------------------
# //////////////////////////////////////    H-H potentials    //////////////////////////////////////
variable alpha equal 1.713          #|
variable sigma equal 1.567          #|
variable gamma equal 0.00993        #|
variable c6 equal 12.14             #|      The parameters are all in atomic units, the conversion to kcal/mol
variable c8 equal 215.2             #|      is performed in the pair_sg.cpp file
variable c9 equal 143.1             #|
variable c10 equal 4813.9           #|
variable rc equal 8.321             #|
pair_coeff 2 2 sg ${alpha} ${sigma} ${gamma} ${c6} ${c8} ${c9} ${c10} ${rc} # H-H potentials
pair_coeff 2 2 sg 1.713 ${sigma} ${gamma} ${c6} ${c8} ${c9} ${c10} ${rc} 
pair_coeff 2 2 sg 1.713 1.567 ${gamma} ${c6} ${c8} ${c9} ${c10} ${rc} 
pair_coeff 2 2 sg 1.713 1.567 0.00993 ${c6} ${c8} ${c9} ${c10} ${rc} 
pair_coeff 2 2 sg 1.713 1.567 0.00993 12.14 ${c8} ${c9} ${c10} ${rc} 
pair_coeff 2 2 sg 1.713 1.567 0.00993 12.14 215.2 ${c9} ${c10} ${rc} 
pair_coeff 2 2 sg 1.713 1.567 0.00993 12.14 215.2 143.1 ${c10} ${rc} 
pair_coeff 2 2 sg 1.713 1.567 0.00993 12.14 215.2 143.1 4813.9 ${rc} 
pair_coeff 2 2 sg 1.713 1.567 0.00993 12.14 215.2 143.1 4813.9 8.321 
#pair_coeff 2 2 sg 1.713 1.567 0.00993 12.14 215.2 143.1 4813.9 8.321 # H-H potentials
# //////////////////////////////////////    H-H potentials    //////////////////////////////////////
# -------------------------------------------------------------------------------------------------
# //////////////////////////////////////    C-H potentials    //////////////////////////////////////
# Parameters taken from the paper by Wang and Johnson, 1998
variable sigma_CC equal 3.43 # Å
variable sigma_HH equal 3.075 # Å
variable sigma_CH_geo equal sqrt(${sigma_CC}*${sigma_HH}) # Å
variable sigma_CH_geo equal sqrt(3.43*${sigma_HH}) 
variable sigma_CH_geo equal sqrt(3.43*3.075) 
variable sigma_CH_arit equal 0.5*(${sigma_CC}+${sigma_HH}) # Å
variable sigma_CH_arit equal 0.5*(3.43+${sigma_HH}) 
variable sigma_CH_arit equal 0.5*(3.43+3.075) 

variable P_par equal 0.57 # Å^3
variable P_perp equal 1.995 # Å^3
variable P_h equal 0.81 # Å^3
variable E_h equal 2.337e5*(1/503.23) # K * 1/503.23 kcal/mol/K = kcal/mol
variable E_c equal 1.39254e5*(1/503.23) # K * 1/503.23 kcal/mol/K = kcal/mol

variable epsilon equal 4*(5/11)*v_E_h*v_E_c*v_P_h*(v_P_par+v_P_perp/2)/(v_sigma_CH_geo^6*(v_E_h+v_E_c)) # kcal/mol
# The formula taken from paper by Wang and Johnson, 1998 to construct epsilon does not seem to be consistent with the
# results obtained from the LAMMPS simulation. We will be using the value of epsilon obtained from the simplified
# version of the CB potential as 12-6 lennard-jones potential, presented in the paper "Theoretical investigation of the
# effect of graphite interlayer spacing on hydrogen absorption" by Rachel S. Aga, C. L. Fu, Maja Krčmar, and James R. Morris.
variable epsilon_sub equal 4*0.085094 # kcal/mol
variable sigma equal 2.97 # Å

pair_coeff 1 2 cb ${epsilon_sub} ${sigma} ${P_par} ${P_perp} # C-H potential
pair_coeff 1 2 cb 0.340376 ${sigma} ${P_par} ${P_perp} 
pair_coeff 1 2 cb 0.340376 2.97 ${P_par} ${P_perp} 
pair_coeff 1 2 cb 0.340376 2.97 0.57 ${P_perp} 
pair_coeff 1 2 cb 0.340376 2.97 0.57 1.995 
#pair_coeff 1 2 lj/cut 0.3025 2.065
# //////////////////////////////////////    C-H potentials    //////////////////////////////////////

# 4. Generate the initial hydrogen atoms
lattice sc 3
Lattice spacing in x,y,z = 3 3 3
create_atoms 2 box ratio 0.05 428795
Created 40 atoms
  using lattice units in orthogonal box = (-12.5 -12.5 -15) to (12.5 12.5 15)
  create_atoms CPU = 0.001 seconds
lattice none 1
# Print the number of hydrogen atoms to file and delete the overlapping hydrogen atoms generated
variable hydrogen atom "type==2"
group hydrogen dynamic all var hydrogen
dynamic group hydrogen defined
variable nH equal count(hydrogen)
fix myat1 all ave/time 100 10 1000 v_nH file simulation_data/hydrogenCount.data

group           C type 1
64 atoms in group C
group           H2 type 2
40 atoms in group H2
delete_atoms    overlap 4 H2 C
System init for delete_atoms ...
Generated 0 of 1 mixed pair_coeff terms from geometric mixing rule
Neighbor list info ...
  update: every = 1 steps, delay = 3 steps, check = yes
  max neighbors/atom: 6000, page size: 100000
  master list distance cutoff = 31
  ghost atom cutoff = 31
  binsize = 15.5, bins = 2 2 2
  5 neighbor lists, perpetual/occasional/extra = 4 1 0
  (1) command delete_atoms, occasional
      attributes: full, newton on
      pair build: full/bin
      stencil: full/bin/3d
      bin: standard
  (2) pair lj/cut, perpetual, skip trim from (5)
      attributes: half, newton on, cut 15
      pair build: skip/trim
      stencil: none
      bin: none
  (3) pair sg, perpetual, skip trim from (5)
      attributes: half, newton on, cut 16
      pair build: skip/trim
      stencil: none
      bin: none
  (4) pair cb, perpetual, skip from (5)
      attributes: half, newton on
      pair build: skip
      stencil: none
      bin: none
  (5) neighbor class addition, perpetual
      attributes: half, newton on
      pair build: half/bin/newton
      stencil: half/bin/3d
      bin: standard
WARNING: Ignoring 'compress yes' for molecular system (src/delete_atoms.cpp:141)
Deleted 6 atoms, new total = 98
reset_atoms     id sort yes
Resetting atom IDs ...
Generated 0 of 1 mixed pair_coeff terms from geometric mixing rule
Neighbor list info ...
  update: every = 1 steps, delay = 3 steps, check = yes
  max neighbors/atom: 6000, page size: 100000
  master list distance cutoff = 31
  ghost atom cutoff = 31
  binsize = 15.5, bins = 2 2 2
  4 neighbor lists, perpetual/occasional/extra = 4 0 0
  (1) pair lj/cut, perpetual, skip trim from (4)
      attributes: half, newton on, cut 15
      pair build: skip/trim
      stencil: none
      bin: none
  (2) pair sg, perpetual, skip trim from (4)
      attributes: half, newton on, cut 16
      pair build: skip/trim
      stencil: none
      bin: none
  (3) pair cb, perpetual, skip from (4)
      attributes: half, newton on
      pair build: skip
      stencil: none
      bin: none
  (4) neighbor class addition, perpetual
      attributes: half, newton on
      pair build: half/bin/newton
      stencil: half/bin/3d
      bin: standard
Finding 1-2 1-3 1-4 neighbors ...
  special bond factors lj:    0        0        0.5     
  special bond factors coul:  0        0        0       
     3 = max # of 1-2 neighbors
     6 = max # of 1-3 neighbors
    18 = max # of 1-4 neighbors
    18 = max # of special neighbors
  special bonds CPU = 0.000 seconds

# Constrain carbon atoms
fix             myspr C spring/self 5

# 5. Equilibration step
thermo 1000
variable        T equal 298
velocity        all create ${T} 1234567 dist gaussian
velocity        all create 298 1234567 dist gaussian
#----------------------------------------------------------------
compute_modify thermo_temp dynamic yes
compute ctH2 H2 temp
compute_modify ctH2 dynamic yes
fix mynvt1 H2 nvt temp ${T} ${T} 0.1
fix mynvt1 H2 nvt temp 298 ${T} 0.1
fix mynvt1 H2 nvt temp 298 298 0.1
fix_modify mynvt1 temp ctH2
WARNING: Temperature for fix modify is not for group all (src/fix_nh.cpp:1399)
compute ctC C temp
fix mynvt2 C nvt temp ${T} ${T} 0.1
fix mynvt2 C nvt temp 298 ${T} 0.1
fix mynvt2 C nvt temp 298 298 0.1
fix_modify mynvt2 temp ctC
WARNING: Temperature for fix modify is not for group all (src/fix_nh.cpp:1399)
timestep 0.05
thermo_style custom step temp pe ke etotal press vol
#----------------------------------------------------------------
# fix             npt1 mob_atoms npt temp ${T} ${T} 200 iso 113 113 2000


# Fix the motion of the outer carbons

dump            test_dump all atom 100 simulation_data/test.lammpstrj

run 100000

CITE-CITE-CITE-CITE-CITE-CITE-CITE-CITE-CITE-CITE-CITE-CITE-CITE

Your simulation uses code contributions which should be cited:

- Type Label Framework: https://doi.org/10.1021/acs.jpcb.3c08419

@Article{Gissinger24,
 author = {Jacob R. Gissinger, Ilia Nikiforov, Yaser Afshar, Brendon Waters, Moon-ki Choi, Daniel S. Karls, Alexander Stukowski, Wonpil Im, Hendrik Heinz, Axel Kohlmeyer, and Ellad B. Tadmor},
 title = {Type Label Framework for Bonded Force Fields in LAMMPS},
 journal = {J. Phys. Chem. B},
 year =    2024,
 volume =  128,
 number =  13,
 pages =   {3282–-3297}
}

CITE-CITE-CITE-CITE-CITE-CITE-CITE-CITE-CITE-CITE-CITE-CITE-CITE

Generated 0 of 1 mixed pair_coeff terms from geometric mixing rule
Per MPI rank memory allocation (min/avg/max) = 13.33 | 13.55 | 13.98 Mbytes
   Step          Temp          PotEng         KinEng         TotEng         Press          Volume    
         0   298            4037.3891      86.163295      4123.5524      8711.2966      18750        
      1000   308.99848      1752.3467      89.343379      1841.6901      1427.8309      18750        
      2000   308.02103      1729.853       89.060763      1818.9138     -943.2348       18750        
      3000   324.06074      1732.814       93.698459      1826.5124      485.43748      18750        
      4000   310.96395      1722.2892      89.911674      1812.2009      279.40709      18750        
      5000   278.17125      1734.302       80.43004       1814.732      -294.73719      18750        
      6000   307.4791       1748.1328      88.904069      1837.0369     -37.41653       18750        
      7000   298.99496      1741.6153      86.450976      1828.0663     -799.95622      18750        
      8000   299.97624      1732.3692      86.734704      1819.1039     -226.04811      18750        
      9000   251.89408      1740.4783      72.832296      1813.3106      128.99825      18750        
     10000   307.08587      1726.6198      88.79037       1815.4102     -17.444544      18750        
     11000   277.45314      1719.7522      80.222406      1799.9746      88.953633      18750        
     12000   287.48038      1721.4807      83.121666      1804.6024     -491.57202      18750        
     13000   269.79953      1719.537       78.009451      1797.5464      867.00203      18750        
     14000   288.18803      1721.07        83.326275      1804.3963      268.15637      18750        
     15000   277.37539      1737.5413      80.199925      1817.7413     -596.6281       18750        
     16000   317.4642       1731.2795      91.791145      1823.0707      299.7878       18750        
     17000   337.80085      1736.6834      97.671257      1834.3546      326.90333      18750        
     18000   314.64622      1719.5151      90.97636       1810.4915      462.17268      18750        
     19000   315.81798      1719.2517      91.315161      1810.5668     -159.92254      18750        
     20000   254.6155       1729.3425      73.619162      1802.9616      14.865438      18750        
     21000   308.37459      1730.1111      89.16299       1819.274       6.4079598      18750        
     22000   295.68535      1729.7193      85.494041      1815.2134     -26.261758      18750        
     23000   320.98153      1727.7671      92.808143      1820.5752     -19.103928      18750        
     24000   333.98572      1723.2513      96.568154      1819.8194     -654.51843      18750        
     25000   323.08189      1725.3554      93.415438      1818.7709      490.90371      18750        
     26000   310.2785       1732.2781      89.713482      1821.9916     -979.08621      18750        
     27000   297.92173      1714.3374      86.140666      1800.4781     -110.78715      18750        
     28000   329.2484       1720.8242      95.198414      1816.0226      592.18199      18750        
     29000   285.78197      1724.1228      82.630592      1806.7534     -128.98739      18750        
     30000   296.35327      1746.4918      85.687161      1832.1789      169.9564       18750        
     31000   304.70314      1721.4111      88.101432      1809.5126     -249.53837      18750        
     32000   294.09198      1723.9705      85.033335      1809.0039      459.80822      18750        
     33000   287.57143      1718.9771      83.147994      1802.1251     -169.75807      18750        
     34000   285.3019       1726.6518      82.491786      1809.1436     -294.97151      18750        
     35000   268.95097      1737.8753      77.764101      1815.6394      90.820487      18750        
     36000   329.3868       1735.9564      95.23843       1831.1948      182.13284      18750        
     37000   287.4547       1722.1331      83.114243      1805.2473     -309.64142      18750        
     38000   313.1218       1736.8558      90.535591      1827.3914      45.231782      18750        
     39000   317.73513      1730.3709      91.869482      1822.2404     -140.35639      18750        
     40000   285.49642      1714.0096      82.548029      1796.5576      417.60173      18750        
     41000   252.18067      1730.0754      72.91516       1802.9906     -824.60682      18750        
     42000   277.79052      1728.1634      80.319955      1808.4833      38.106639      18750        
     43000   335.30746      1730.5126      96.950322      1827.4629      194.00412      18750        
     44000   237.80207      1725.0151      68.757751      1793.7729      129.23373      18750        
     45000   300.81175      1725.4818      86.976281      1812.4581     -443.78232      18750        
     46000   297.18175      1724.1789      85.926708      1810.1056      340.18254      18750        
     47000   284.87174      1724.9625      82.367409      1807.3299     -68.619244      18750        
     48000   281.34721      1718.8034      81.348331      1800.1517      335.48699      18750        
     49000   274.4183       1719.7809      79.344916      1799.1258     -255.24376      18750        
     50000   295.50223      1721.8335      85.441094      1807.2746     -80.515254      18750        
     51000   268.39439      1717.3481      77.60317       1794.9513     -54.416831      18750        
     52000   273.56401      1736.1302      79.097909      1815.2282      386.0824       18750        
     53000   295.20831      1714.9558      85.356111      1800.312       69.054106      18750        
     54000   286.3961       1720.5761      82.808161      1803.3843     -361.21813      18750        
     55000   294.21044      1722.6883      85.067589      1807.7559      126.62854      18750        
     56000   295.80708      1722.7182      85.529238      1808.2474     -128.58429      18750        
     57000   261.05959      1730.5774      75.482397      1806.0598     -289.12258      18750        
     58000   277.7393       1732.3968      80.305147      1812.7019      341.30259      18750        
     59000   293.20155      1718.7591      84.775879      1803.535      -909.97958      18750        
     60000   256.30967      1724.6029      74.109011      1798.7119      910.62831      18750        
     61000   326.7082       1720.6339      94.463943      1815.0978     -265.29133      18750        
     62000   273.5519       1714.9408      79.094408      1794.0352     -255.14246      18750        
     63000   264.68526      1737.5759      76.530719      1814.1066      692.63035      18750        
     64000   261.03088      1718.8805      75.474097      1794.3546     -649.37608      18750        
     65000   273.00747      1735.3132      78.936989      1814.2502      837.34022      18750        
     66000   314.33719      1730.1465      90.887008      1821.0335     -328.00792      18750        
     67000   292.70933      1729.4504      84.633557      1814.0839      549.88485      18750        
     68000   282.87072      1722.511       81.788837      1804.2998      303.2885       18750        
     69000   305.04214      1719.2652      88.199451      1807.4646     -32.049946      18750        
     70000   293.81702      1724.6049      84.953835      1809.5587      520.96627      18750        
     71000   277.91733      1730.6718      80.356622      1811.0284     -363.10753      18750        
     72000   296.78204      1730.6135      85.811137      1816.4246      552.29708      18750        
     73000   312.79944      1729.1099      90.442385      1819.5523     -11.743893      18750        
     74000   299.74336      1728.6839      86.667368      1815.3513     -475.89808      18750        
     75000   299.45895      1714.6707      86.585133      1801.2558      788.81746      18750        
     76000   308.24998      1721.804       89.12696       1810.931      -133.45181      18750        
     77000   279.85408      1717.4722      80.916608      1798.3889     -376.62754      18750        
     78000   242.15821      1712.828       70.017279      1782.8453     -149.73373      18750        
     79000   290.76877      1719.4332      84.072466      1803.5056      558.26132      18750        
     80000   340.23342      1714.8911      98.374607      1813.2657      123.94349      18750        
     81000   276.10659      1727.5767      79.833065      1807.4097      70.946202      18750        
     82000   331.88504      1723.8969      95.960768      1819.8577     -335.40525      18750        
     83000   311.34571      1728.6997      90.022054      1818.7217     -217.32509      18750        
     84000   322.38868      1716.2818      93.215004      1809.4968      339.62863      18750        
     85000   315.88244      1723.5582      91.333799      1814.892       123.52348      18750        
     86000   330.07308      1718.5025      95.436859      1813.9394     -164.78726      18750        
     87000   262.36417      1725.1844      75.859601      1801.044       317.15284      18750        
     88000   292.66023      1723.4325      84.619363      1808.0518     -164.75235      18750        
     89000   274.60765      1736.2249      79.399666      1815.6246      741.44135      18750        
     90000   331.91109      1715.3469      95.968299      1811.3152      111.00093      18750        
     91000   256.52918      1723.9638      74.172483      1798.1362     -114.91927      18750        
     92000   270.35818      1718.5926      78.170978      1796.7635     -457.18761      18750        
     93000   291.69816      1723.5173      84.341191      1807.8585      91.495423      18750        
     94000   296.41216      1716.7608      85.704188      1802.465       849.10083      18750        
     95000   272.91668      1739.5255      78.910739      1818.4362     -799.66733      18750        
     96000   309.38967      1729.5668      89.456487      1819.0233     -150.76921      18750        
     97000   314.63831      1716.493       90.974074      1807.4671      274.17475      18750        
     98000   318.0751       1722.7968      91.967781      1814.7646     -354.39735      18750        
     99000   268.78842      1722.9986      77.717102      1800.7157      314.46525      18750        
    100000   286.94332      1710.2214      82.966383      1793.1878     -246.7715       18750        
Loop time of 60.7478 on 6 procs for 100000 steps with 98 atoms

Performance: 7.111 ns/day, 3.375 hours/ns, 1646.150 timesteps/s, 161.323 katom-step/s
95.0% CPU use with 6 MPI tasks x no OpenMP threads

MPI task timing breakdown:
Section |  min time  |  avg time  |  max time  |%varavg| %total
---------------------------------------------------------------
Pair    | 9.2441     | 22.886     | 38.982     | 198.7 | 37.67
Bond    | 0.023921   | 0.61223    | 1.2368     |  59.4 |  1.01
Neigh   | 0.10467    | 0.10531    | 0.10614    |   0.2 |  0.17
Comm    | 14.146     | 30.599     | 44.661     | 176.6 | 50.37
Output  | 0.0533     | 0.061911   | 0.088046   |   4.8 |  0.10
Modify  | 5.7953     | 5.9052     | 6.0825     |   5.0 |  9.72
Other   |            | 0.5784     |            |       |  0.95

Nlocal:        16.3333 ave          25 max           6 min
Histogram: 1 1 0 0 0 1 1 0 0 2
Nghost:        2200.67 ave        2327 max        2017 min
Histogram: 2 0 0 0 0 0 0 2 0 2
Neighs:              0 ave           0 max           0 min
Histogram: 6 0 0 0 0 0 0 0 0 0

Total # of neighbors = 0
Ave neighs/atom = 0
Ave special neighs/atom = 7.6734694
Neighbor list builds = 342
Dangerous builds = 0

# 6. Production step - GCMC
variable tfac equal 3.0/3.0
# variable xlo equal xlo+0.1
# variable xhi equal xhi-0.1
# variable ylo equal ylo+0.1
# variable yhi equal yhi-0.1
# variable zlo equal zlo+0.1
# variable zhi equal zhi-0.1
# region system block ${xlo} ${xhi} ${ylo} ${yhi} ${zlo} ${zhi}
fix fgcmc H2 gcmc 100 100 0 2 65899 ${T} -0.5 0.1     tfac_insert ${tfac} group H2     pressure 113 #region system
fix fgcmc H2 gcmc 100 100 0 2 65899 298 -0.5 0.1     tfac_insert ${tfac} group H2     pressure 113 
fix fgcmc H2 gcmc 100 100 0 2 65899 298 -0.5 0.1     tfac_insert 1 group H2     pressure 113 
run 40000
Generated 0 of 1 mixed pair_coeff terms from geometric mixing rule
WARNING: Fix gcmc using full_energy option (src/MC/fix_gcmc.cpp:544)
0 atoms in group FixGCMC:gcmc_exclusion_group:fgcmc
Per MPI rank memory allocation (min/avg/max) = 14.34 | 14.55 | 14.98 Mbytes
   Step          Temp          PotEng         KinEng         TotEng         Press          Volume    
    100000   286.94332      1710.2214      82.966383      1793.1878     -246.7715       18750        
    101000   337.21336      1732.1264      89.460038      1821.5864     -341.36438      18750        
    102000   337.19908      1720.7298      91.466502      1812.1963      482.53162      18750        
    103000   251.55533      1725.0836      64.486125      1789.5697     -180.89576      18750        
    104000   259.31619      1728.6936      69.567508      1798.2611      256.40841      18750        
    105000   303.20485      1719.6775      85.860627      1805.5381      133.93172      18750        
    106000   290.07476      1725.1651      79.548513      1804.7136     -848.18127      18750        
    107000   281.40356      1709.0909      83.881057      1792.9719      648.24131      18750        
    108000   324.00132      1717.9271      92.715493      1810.6426     -241.57474      18750        
    109000   265.23435      1724.9703      75.108255      1800.0786      343.60111      18750        
    110000   261.95631      1724.2553      66.37157       1790.6269     -161.31064      18750        
    111000   302.57632      1717.2548      77.565338      1794.8202      645.72304      18750        
    112000   286.94526      1733.0219      79.545625      1812.5675     -344.4237       18750        
    113000   271.07256      1711.3709      79.185549      1790.5565     -120.63685      18750        
    114000   236.48434      1716.3349      61.327596      1777.6625      54.001334      18750        
    115000   290.35797      1716.5013      79.626179      1796.1275     -126.6808       18750        
    116000   284.58947      1718.1745      78.044257      1796.2187      1030.1776      18750        
    117000   292.47867      1715.113       80.207749      1795.3208      156.64995      18750        
    118000   325.76248      1721.0816      93.219462      1814.3011      183.1231       18750        
    119000   304.33462      1711.4146      90.71637       1802.1309      61.438591      18750        
    120000   289.54315      1715.8476      88.033459      1803.8811      214.15021      18750        
    121000   309.72147      1728.0898      85.85954       1813.9493     -88.435035      18750        
    122000   315.66061      1716.0733      83.742265      1799.8155      289.50136      18750        
    123000   285.73742      1720.389       79.210793      1799.5998      88.638505      18750        
    124000   346.29431      1717.7945      92.901379      1810.6959     -21.66087       18750        
    125000   321.94812      1711.2166      89.248954      1800.4655      362.18526      18750        
    126000   313.82392      1715.5623      89.803152      1805.3654      88.247259      18750        
    127000   253.53148      1716.497       67.259898      1783.7569     -241.56975      18750        
    128000   282.83134      1712.2653      83.463584      1795.7289      54.479564      18750        
    129000   292.37253      1721.9596      80.178641      1802.1383      164.86608      18750        
    130000   315.15722      1716.6568      81.729871      1798.3867     -208.54166      18750        
    131000   346.67011      1719.9098      90.935481      1810.8453      468.96992      18750        
    132000   276.15241      1713.5214      80.669473      1794.1908      139.53959      18750        
    133000   300.60586      1710.086       86.020701      1796.1067     -156.29545      18750        
    134000   290.83351      1711.9324      74.555072      1786.4875      461.51386      18750        
    135000   328.07929      1714.5047      85.080957      1799.5856     -220.58279      18750        
    136000   280.83471      1713.1016      74.503229      1787.6048      94.109766      18750        
    137000   305.80258      1708.5628      79.303927      1787.8668     -333.14701      18750        
    138000   299.27623      1715.7723      80.287703      1796.06        262.13154      18750        
    139000   324.27849      1718.4117      85.061908      1803.4736     -70.897613      18750        
    140000   257.20326      1722.784       63.633947      1786.418       270.11832      18750        
Loop time of 70.9358 on 6 procs for 40000 steps with 84 atoms

Performance: 2.436 ns/day, 9.852 hours/ns, 563.890 timesteps/s, 47.367 katom-step/s
94.8% CPU use with 6 MPI tasks x no OpenMP threads

MPI task timing breakdown:
Section |  min time  |  avg time  |  max time  |%varavg| %total
---------------------------------------------------------------
Pair    | 3.7612     | 7.916      | 13.942     | 115.5 | 11.16
Bond    | 0.010105   | 0.24567    | 0.50035    |  37.9 |  0.35
Neigh   | 0.14501    | 0.14641    | 0.14755    |   0.3 |  0.21
Comm    | 5.2064     | 11.377     | 15.695     |  99.3 | 16.04
Output  | 0.021564   | 0.025064   | 0.037022   |   3.4 |  0.04
Modify  | 50.969     | 51.013     | 51.088     |   0.7 | 71.91
Other   |            | 0.2126     |            |       |  0.30

Nlocal:             14 ave          21 max           3 min
Histogram: 2 0 0 0 0 0 0 1 0 3
Nghost:           1847 ave        1960 max        1667 min
Histogram: 2 0 0 0 0 0 0 0 2 2
Neighs:              0 ave           0 max           0 min
Histogram: 6 0 0 0 0 0 0 0 0 0

Total # of neighbors = 0
Ave neighs/atom = 0
Ave special neighs/atom = 8.952381
Neighbor list builds = 40800
Dangerous builds = 0

write_data     ensemble_test.data
System init for write_data ...
Generated 0 of 1 mixed pair_coeff terms from geometric mixing rule
write_dump     all atom simulation_data/ensemble_test.lammpstrj

Total wall time: 0:02:11
