# --- log file ---

variable pre equal 112 # desired pressure (Atm)
variable tem equal 300 # desired temperature (K)

variable k1 equal 0.5 # spring constant
variable k2 equal 2.5 # spring constant

units real
atom_style molecular
boundary p p p
neighbor 1.0 bin
neigh_modify delay 3 one 6000
bond_style harmonic
angle_style harmonic
dihedral_style opls
improper_style harmonic
pair_style hybrid lj/cut 14 sg 15 cb 30 # Fluid-fluid interactions have a cutoff of 15 Å, fluid-solid interactions have a cutoff of 30 Å
# *--* C-C parameters *--*
bond_style harmonic
angle_style harmonic
dihedral_style opls
improper_style harmonic
# *--* C-C parameters *--*


# 2. Read the graphite platelet data file and define potentials parameters
read_data       ../geometry/carbonPlatelets/simulation_data/abpot_sys.data  extra/atom/types 1
Reading data file ...
  orthogonal box = (-30 -30 -30) to (30 30 30)
  3 by 4 by 4 MPI processor grid
  reading atoms ...
  480 atoms
  reading velocities ...
  480 velocities
  scanning bonds ...
  2 = max bonds/atom
  scanning angles ...
  3 = max angles/atom
  scanning dihedrals ...
  8 = max dihedrals/atom
  scanning impropers ...
  2 = max impropers/atom
  orthogonal box = (-30 -30 -30) to (30 30 30)
  3 by 4 by 4 MPI processor grid
  reading bonds ...
  676 bonds
  reading angles ...
  1268 angles
  reading dihedrals ...
  2394 dihedrals
  reading impropers ...
  396 impropers
Finding 1-2 1-3 1-4 neighbors ...
  special bond factors lj:    0        0        0       
  special bond factors coul:  0        0        0       
     3 = max # of 1-2 neighbors
     6 = max # of 1-3 neighbors
    18 = max # of 1-4 neighbors
    18 = max # of special neighbors
  special bonds CPU = 0.003 seconds
  read_data CPU = 0.050 seconds
include         PARM.lammps

#////////////////////////////////////////////////////////////////////////////////////////////////////////////////////////////////
#//     Filename: PARM.lammps
#//     File Type: LAMMPS input script
#//     Description: This script defines the parameters for the simulation of hydrogen absorption in graphite platelets.
#//     Author: Edoardo Cabiati
#//     Date: 2024-07-27
#////////////////////////////////////////////////////////////////////////////////////////////////////////////////////////////////

mass 2 2.016 # For now at least, in accordance with the paper by Wang and Johnson,
             # 1998, the hydrogen atoms are regarded as simple spherical atoms

# //////////////////////////////////////    C-C potentials    //////////////////////////////////////
pair_coeff 1 1 lj/cut 0.066 3.4
bond_coeff 1 469 1.4
angle_coeff 1 63 120
dihedral_coeff 1 0 7.25 0 0
improper_coeff 1 5 180
special_bonds lj 0.0 0.0 0.5
Finding 1-2 1-3 1-4 neighbors ...
  special bond factors lj:    0        0        0.5     
  special bond factors coul:  0        0        0       
     3 = max # of 1-2 neighbors
     6 = max # of 1-3 neighbors
    18 = max # of 1-4 neighbors
    18 = max # of special neighbors
  special bonds CPU = 0.001 seconds
# //////////////////////////////////////    C-C potentials    //////////////////////////////////////
# -------------------------------------------------------------------------------------------------
# //////////////////////////////////////    H-H potentials    //////////////////////////////////////
variable alpha equal 1.713          #|
variable sigma equal 1.567          #|
variable gamma equal 0.00993        #|
variable c6 equal 12.14             #|      The parameters are all in atomic units, the conversion to kcal/mol
variable c8 equal 215.2             #|      is performed in the pair_sg.cpp file
variable c9 equal 143.1             #|
variable c10 equal 4813.9           #|
variable rc equal 8.321             #|
pair_coeff 2 2 sg ${alpha} ${sigma} ${gamma} ${c6} ${c8} ${c9} ${c10} ${rc} # H-H potentials
pair_coeff 2 2 sg 1.713 ${sigma} ${gamma} ${c6} ${c8} ${c9} ${c10} ${rc} 
pair_coeff 2 2 sg 1.713 1.567 ${gamma} ${c6} ${c8} ${c9} ${c10} ${rc} 
pair_coeff 2 2 sg 1.713 1.567 0.00993 ${c6} ${c8} ${c9} ${c10} ${rc} 
pair_coeff 2 2 sg 1.713 1.567 0.00993 12.14 ${c8} ${c9} ${c10} ${rc} 
pair_coeff 2 2 sg 1.713 1.567 0.00993 12.14 215.2 ${c9} ${c10} ${rc} 
pair_coeff 2 2 sg 1.713 1.567 0.00993 12.14 215.2 143.1 ${c10} ${rc} 
pair_coeff 2 2 sg 1.713 1.567 0.00993 12.14 215.2 143.1 4813.9 ${rc} 
pair_coeff 2 2 sg 1.713 1.567 0.00993 12.14 215.2 143.1 4813.9 8.321 
#pair_coeff 2 2 sg 1.713 1.567 0.00993 12.14 215.2 143.1 4813.9 8.321 # H-H potentials
# //////////////////////////////////////    H-H potentials    //////////////////////////////////////
# -------------------------------------------------------------------------------------------------
# //////////////////////////////////////    C-H potentials    //////////////////////////////////////
variable sigma_CC equal 3.43 # Å
variable sigma_HH equal 3.075 # Å
variable sigma_CH_geo equal sqrt(${sigma_CC}*${sigma_HH}) # Å
variable sigma_CH_geo equal sqrt(3.43*${sigma_HH}) 
variable sigma_CH_geo equal sqrt(3.43*3.075) 
variable sigma_CH_arit equal 0.5*(${sigma_CC}+${sigma_HH}) # Å
variable sigma_CH_arit equal 0.5*(3.43+${sigma_HH}) 
variable sigma_CH_arit equal 0.5*(3.43+3.075) 

variable P_par equal 0.57 # Å^3
variable P_perp equal 1.995 # Å^3
variable P_h equal 0.81 # Å^3
variable E_h equal 2.337e5*(1/503.23) # K * 1/503.23 kcal/mol/K = kcal/mol
variable E_c equal 1.39254e5*(1/503.23) # K * 1/503.23 kcal/mol/K = kcal/mol

variable epsilon equal 4*v_E_h*v_E_c*v_P_h*(v_P_par+v_P_perp/2)/(v_sigma_CH_geo^6*(v_E_h+v_E_c)) # kcal/mol

pair_coeff 1 2 cb ${epsilon} ${sigma_CH_geo} ${P_par} ${P_perp} # C-H potential
pair_coeff 1 2 cb 0.750549668586509 ${sigma_CH_geo} ${P_par} ${P_perp} 
pair_coeff 1 2 cb 0.750549668586509 3.24765299870537 ${P_par} ${P_perp} 
pair_coeff 1 2 cb 0.750549668586509 3.24765299870537 0.57 ${P_perp} 
pair_coeff 1 2 cb 0.750549668586509 3.24765299870537 0.57 1.995 
#pair_coeff 1 2 lj/cut 0.3025 2.065
# //////////////////////////////////////    C-H potentials    //////////////////////////////////////

# 3. Add a single hydrogen molecule to the system, close to the center of the first platelet
create_atoms    2 single 0 0 -2
Created 1 atoms
  using lattice units in orthogonal box = (-30 -30 -30) to (30 30 30)
  create_atoms CPU = 0.000 seconds

group           C type 1
480 atoms in group C
group           H2 type 2
1 atoms in group H2

# 4. Equilibration
timestep        0.05
fix             mytth1 C spring/self ${k2} # Apply a spring force to the carbon atoms
fix             mytth1 C spring/self 2.5 
velocity        all create ${tem} 48 rot yes mom yes dist gaussian # Initialize velocities
velocity        all create 300 48 rot yes mom yes dist gaussian 
fix             mynpt all npt temp ${tem} ${tem} 100 x ${pre} ${pre} 1000 y ${pre} ${pre} 1000 # Apply NPT ensemble to the system
fix             mynpt all npt temp 300 ${tem} 100 x ${pre} ${pre} 1000 y ${pre} ${pre} 1000 
fix             mynpt all npt temp 300 300 100 x ${pre} ${pre} 1000 y ${pre} ${pre} 1000 
fix             mynpt all npt temp 300 300 100 x 112 ${pre} 1000 y ${pre} ${pre} 1000 
fix             mynpt all npt temp 300 300 100 x 112 112 1000 y ${pre} ${pre} 1000 
fix             mynpt all npt temp 300 300 100 x 112 112 1000 y 112 ${pre} 1000 
fix             mynpt all npt temp 300 300 100 x 112 112 1000 y 112 112 1000 

thermo          1000
dump            dump all atom 1000 simulation_data/absorption_pot.lammpstrj

run             20000

CITE-CITE-CITE-CITE-CITE-CITE-CITE-CITE-CITE-CITE-CITE-CITE-CITE

Your simulation uses code contributions which should be cited:

- Type Label Framework: https://doi.org/10.1021/acs.jpcb.3c08419

@Article{Gissinger24,
 author = {Jacob R. Gissinger, Ilia Nikiforov, Yaser Afshar, Brendon Waters, Moon-ki Choi, Daniel S. Karls, Alexander Stukowski, Wonpil Im, Hendrik Heinz, Axel Kohlmeyer, and Ellad B. Tadmor},
 title = {Type Label Framework for Bonded Force Fields in LAMMPS},
 journal = {J. Phys. Chem. B},
 year =    2024,
 volume =  128,
 number =  13,
 pages =   {3282–-3297}
}

CITE-CITE-CITE-CITE-CITE-CITE-CITE-CITE-CITE-CITE-CITE-CITE-CITE

Generated 0 of 1 mixed pair_coeff terms from geometric mixing rule
Neighbor list info ...
  update: every = 1 steps, delay = 3 steps, check = yes
  max neighbors/atom: 6000, page size: 100000
  master list distance cutoff = 31
  ghost atom cutoff = 31
  binsize = 15.5, bins = 4 4 4
  4 neighbor lists, perpetual/occasional/extra = 4 0 0
  (1) pair lj/cut, perpetual, skip trim from (4)
      attributes: half, newton on, cut 15
      pair build: skip/trim
      stencil: none
      bin: none
  (2) pair sg, perpetual, skip trim from (4)
      attributes: half, newton on, cut 16
      pair build: skip/trim
      stencil: none
      bin: none
  (3) pair cb, perpetual, skip from (4)
      attributes: half, newton on
      pair build: skip
      stencil: none
      bin: none
  (4) neighbor class addition, perpetual
      attributes: half, newton on
      pair build: half/bin/newton
      stencil: half/bin/3d
      bin: standard
Per MPI rank memory allocation (min/avg/max) = 13.28 | 13.37 | 13.93 Mbytes
   Step          Temp          E_pair         E_mol          TotEng         Press          Volume    
         0   300            308.43814      19603.922      20341.597     -432.48369      216000       
      1000   539.28481      474.90214      18930.511      20177.016      925.57319      208246.51    
      2000   513.66516      379.35657      18927.781      20042.084     -577.21644      210322.3     
      3000   452.10534      365.12872      18882.276      19894.272     -553.80306      208897.53    
      4000   398.49888      451.16491      18776.444      19797.776      785.85309      202473.36    
      5000   404.82323      350.66871      18776.756      19706.641     -950.31081      202441.87    
      6000   355.22541      415.01872      18660.894      19584.166      222.34687      195846.89    
      7000   371.94161      396.35915      18621.877      19550.406      136.66262      191938.7     
      8000   320.30518      372.897        18632.833      19464.019     -348.5597       188292.93    
      9000   318.0402       410.79969      18553.518      19419.366      287.58463      182099.95    
     10000   316.19925      372.43749      18560.777      19385.629     -429.95184      178677.27    
     11000   290.1828       392.27167      18528.721      19336.183     -27.470332      173262.06    
     12000   291.25999      389.62663      18522.665      19329.023      84.370129      168839.25    
     13000   274.27332      379.755        18534.843      19307.025     -245.02251      164556.51    
     14000   274.4512       387.95403      18528.256      19308.891     -182.93138      159750.89    
     15000   287.30796      380.23765      18528.43       19319.745     -321.83411      155731.85    
     16000   285.60361      387.39269      18529.507      19325.538     -210.05173      151090.25    
     17000   293.98181      385.79879      18551.823      19358.248     -204.48285      146928.26    
     18000   307.10723      378.3826       18557.936      19375.725     -399.49253      142955.49    
     19000   308.31113      388.42374      18550.442      19379.994     -212.93328      138612.54    
     20000   321.12375      376.41763      18551.171      19387.049     -319.26564      135000.31    
Loop time of 10.0127 on 48 procs for 20000 steps with 481 atoms

Performance: 8.629 ns/day, 2.781 hours/ns, 1997.463 timesteps/s, 960.780 katom-step/s
99.8% CPU use with 48 MPI tasks x 1 OpenMP threads

MPI task timing breakdown:
Section |  min time  |  avg time  |  max time  |%varavg| %total
---------------------------------------------------------------
Pair    | 0.12373    | 0.56675    | 3.3303     |  95.0 |  5.66
Bond    | 0.0040667  | 0.50275    | 3.3119     | 129.1 |  5.02
Neigh   | 0.027277   | 0.029807   | 0.032706   |   0.9 |  0.30
Comm    | 2.4999     | 5.6844     | 8.4566     |  90.7 | 56.77
Output  | 0.0062663  | 0.011923   | 0.018509   |   3.7 |  0.12
Modify  | 0.70877    | 2.8795     | 6.5277     | 137.1 | 28.76
Other   |            | 0.3375     |            |       |  3.37

Nlocal:        10.0208 ave          48 max           0 min
Histogram: 22 12 6 0 0 0 2 2 2 2
Nghost:        1818.35 ave        2346 max        1176 min
Histogram: 8 0 0 0 24 0 0 0 0 16
Neighs:              0 ave           0 max           0 min
Histogram: 48 0 0 0 0 0 0 0 0 0

Total # of neighbors = 0
Ave neighs/atom = 0
Ave special neighs/atom = 15.567568
Neighbor list builds = 53
Dangerous builds = 0
unfix           mynpt
unfix           mytth1

# 5. Umbrella sampling
fix             mynvt all nvt temp ${tem} ${tem} 100
fix             mynvt all nvt temp 300 ${tem} 100
fix             mynvt all nvt temp 300 300 100
fix             mytth1 C spring/self ${k2}
fix             mytth1 C spring/self 2.5

variable        cpt loop 51
label           loop
variable        zdes equal  -15+0.60*(${cpt}-1)
variable        zdes equal  -15+0.60*(1-1)
variable        zave equal xcm(H2,z)
fix             mytth2 H2 spring tether ${k1} 2.5 2.5 ${zdes} 0
fix             mytth2 H2 spring tether 0.5 2.5 2.5 ${zdes} 0
fix             mytth2 H2 spring tether 0.5 2.5 2.5 -15 0
run             10000
Generated 0 of 1 mixed pair_coeff terms from geometric mixing rule
Per MPI rank memory allocation (min/avg/max) = 13.32 | 13.7 | 14.98 Mbytes
   Step          Temp          E_pair         E_mol          TotEng         Press     
     20000   321.12375      376.41763      18551.171      19387.049     -319.26564    
     21000   280.33241      327.69598      18643.075      19371.868     -1618.717     
     22000   325.73737      367.06917      18548.632      19381.763     -223.49408    
     23000   283.12995      451.22137      18508.92       19365.24       1624.8853    
     24000   307.95906      404.8415       18512.775      19358.24       656.90208    
     25000   277.96822      334.9992       18602.964      19335.677     -1190.7793    
     26000   282.46753      344.35911      18579.118      19327.629     -921.97814    
     27000   288.78242      406.93204      18507.152      19327.271      649.63162    
     28000   293.03508      428.37123      18490.407      19338.049      1186.1083    
     29000   320.67642      361.92644      18549.47       19370.217     -482.69165    
     30000   299.15881      337.71042      18611.289      19377.032     -1123.4729    
Loop time of 4.19067 on 48 procs for 10000 steps with 481 atoms

Performance: 10.309 ns/day, 2.328 hours/ns, 2386.254 timesteps/s, 1.148 Matom-step/s
100.0% CPU use with 48 MPI tasks x 1 OpenMP threads

MPI task timing breakdown:
Section |  min time  |  avg time  |  max time  |%varavg| %total
---------------------------------------------------------------
Pair    | 0.0034815  | 0.18202    | 1.3854     |  69.9 |  4.34
Bond    | 0.0010665  | 0.21881    | 1.4976     |  77.4 |  5.22
Neigh   | 0.029854   | 0.032643   | 0.034952   |   0.7 |  0.78
Comm    | 1.107      | 3.082      | 3.8424     |  50.2 | 73.54
Output  | 0.0024684  | 0.0045817  | 0.0069654  |   2.1 |  0.11
Modify  | 0.12908    | 0.5435     | 2.3707     | 109.1 | 12.97
Other   |            | 0.1272     |            |       |  3.03

Nlocal:        10.0208 ave          52 max           0 min
Histogram: 23 10 6 1 2 1 2 0 2 1
Nghost:        1818.35 ave        2347 max        1171 min
Histogram: 8 0 0 0 24 0 0 0 0 16
Neighs:              0 ave           0 max           0 min
Histogram: 48 0 0 0 0 0 0 0 0 0

Total # of neighbors = 0
Ave neighs/atom = 0
Ave special neighs/atom = 15.567568
Neighbor list builds = 60
Dangerous builds = 0
fix             myat1 all ave/time 1000 10 10000 v_zave v_zdes file simulation_data/abpot/${cpt}.dat
fix             myat1 all ave/time 1000 10 10000 v_zave v_zdes file simulation_data/abpot/1.dat
run             50000
Generated 0 of 1 mixed pair_coeff terms from geometric mixing rule
Per MPI rank memory allocation (min/avg/max) = 13.32 | 13.71 | 14.98 Mbytes
   Step          Temp          E_pair         E_mol          TotEng         Press     
     30000   299.15881      337.71042      18611.289      19377.032     -1123.4729    
     31000   324.75959      382.61103      18534.039      19381.313      30.562612    
     32000   288.59392      429.37945      18530.105      19372.402      1062.5242    
     33000   294.78643      390.39277      18564.13       19376.3        253.22216    
     34000   296.14487      337.53138      18618.38       19379.632     -1086.8961    
     35000   310.08523      349.55512      18589.373      19382.595     -664.88781    
     36000   295.05769      413.32403      18532.431      19367.92       831.58578    
     37000   275.72341      409.55828      18539.986      19344.046      640.598      
     38000   284.60431      368.87741      18556.724      19332.81      -300.94613    
     39000   277.12284      338.96421      18595.365      19330.834     -919.57697    
     40000   286.96182      382.87041      18545.931      19339.383      153.34487    
     41000   288.63261      406.50568      18535.447      19354.925      639.97342    
     42000   294.89174      386.77162      18565.797      19374.496      111.69569    
     43000   313.64332      357.70809      18582.178      19388.643     -524.14535    
     44000   308.45978      360.19794      18588.049      19389.588     -497.55566    
     45000   311.56635      398.35212      18545.204      19389.342      516.19531    
     46000   301.47519      391.1786       18558.863      19381.389      232.18194    
     47000   303.10395      363.8315       18574.323      19371.832     -498.24192    
     48000   303.89552      360.5712       18567.905      19363.287     -513.25513    
     49000   295.54251      380.07749      18546.654      19349.59       82.240614    
     50000   299.10426      400.34292      18516.8        19345.098      566.326      
     51000   290.79624      372.02992      18560.866      19348.964     -371.26899    
     52000   299.67345      364.88664      18563.939      19357.595     -520.15649    
     53000   290.52236      368.1785       18570.581      19354.436     -223.58926    
     54000   297.39696      388.56578      18541.885      19355.963      223.32811    
     55000   302.22029      384.41975      18546.164      19362.997      147.53534    
     56000   307.6428       363.33594      18566.817      19370.325     -436.48681    
     57000   290.55861      372.19751      18589.186      19377.111     -26.08714     
     58000   307.84146      377.27128      18563.643      19381.371      25.827723    
     59000   307.70061      382.66711      18563.556      19386.477      141.04188    
     60000   301.45641      381.79103      18582.606      19395.718      66.696869    
     61000   315.56809      371.32646      18586.811      19409.649     -207.3457     
     62000   311.3075       373.36653      18593.708      19412.49      -155.1958     
     63000   306.68635      376.84703      18587.704      19403.354     -136.48641    
     64000   306.01521      381.9987       18560.136      19379.978      76.093667    
     65000   301.33725      378.0003       18555.641      19364.792      15.315025    
     66000   297.65503      372.51307      18556.404      19354.799     -203.18381    
     67000   268.49862      374.46439      18590.936      19349.565     -145.14649    
     68000   308.24585      371.11246      18538.84       19350.987     -158.82689    
     69000   273.9668       382.59693      18575.964      19350.55       112.5826     
     70000   294.82444      375.96224      18562.708      19360.501     -83.113134    
     71000   309.06071      369.03154      18562.498      19373.73      -190.16593    
     72000   297.69364      376.32543      18590.068      19392.33      -60.362565    
     73000   312.5381       377.67049      18581.379      19406.226      10.308272    
     74000   309.27272      385.08033      18584.163      19411.747      112.3979     
     75000   328.7558       373.22052      18562.427      19406.028      12.171777    
     76000   299.33363      370.45519      18593.05       19391.788     -209.55529    
     77000   313.54194      378.30345      18557.573      19384.488      25.944099    
     78000   323.44807      381.91738      18531.225      19375.928      176.0529     
     79000   301.84471      379.62388      18557.742      19369.242      12.931287    
     80000   314.77219      372.18826      18536.477      19359.038     -83.801564    
Loop time of 19.7071 on 48 procs for 50000 steps with 481 atoms

Performance: 10.961 ns/day, 2.190 hours/ns, 2537.156 timesteps/s, 1.220 Matom-step/s
100.0% CPU use with 48 MPI tasks x 1 OpenMP threads

MPI task timing breakdown:
Section |  min time  |  avg time  |  max time  |%varavg| %total
---------------------------------------------------------------
Pair    | 0.01716    | 0.85491    | 5.5367     | 151.5 |  4.34
Bond    | 0.0052459  | 1.0457     | 7.2844     | 168.1 |  5.31
Neigh   | 0.065208   | 0.070457   | 0.074954   |   1.0 |  0.36
Comm    | 7.0201     | 14.464     | 17.897     | 106.1 | 73.39
Output  | 0.011358   | 0.019396   | 0.027812   |   3.8 |  0.10
Modify  | 0.64701    | 2.6677     | 11.195     | 226.1 | 13.54
Other   |            | 0.5849     |            |       |  2.97

Nlocal:        10.0208 ave          44 max           0 min
Histogram: 22 10 7 1 0 0 0 3 1 4
Nghost:        1818.35 ave        2347 max        1179 min
Histogram: 8 0 0 0 24 0 0 0 0 16
Neighs:              0 ave           0 max           0 min
Histogram: 48 0 0 0 0 0 0 0 0 0

Total # of neighbors = 0
Ave neighs/atom = 0
Ave special neighs/atom = 15.567568
Neighbor list builds = 129
Dangerous builds = 0
unfix           myat1
next            cpt
jump            SELF loop
variable        zdes equal  -15+0.60*(${cpt}-1)
variable        zdes equal  -15+0.60*(2-1)
variable        zave equal xcm(H2,z)
fix             mytth2 H2 spring tether ${k1} 2.5 2.5 ${zdes} 0
fix             mytth2 H2 spring tether 0.5 2.5 2.5 ${zdes} 0
fix             mytth2 H2 spring tether 0.5 2.5 2.5 -14.4 0
run             10000
Generated 0 of 1 mixed pair_coeff terms from geometric mixing rule
Per MPI rank memory allocation (min/avg/max) = 13.32 | 13.72 | 14.98 Mbytes
   Step          Temp          E_pair         E_mol          TotEng         Press     
     80000   314.77219      372.18826      18536.477      19359.038     -83.801564    
     81000   300.82812      372.12991      18542.037      19344.588     -26.345974    
     82000   298.4692       370.15128      18536.43       19333.627     -231.82966    
     83000   289.53516      386.43595      18527.561      19328.261      231.63829    
     84000   296.95739      379.33891      18530.704      19334.926      132.79873    
     85000   307.30053      369.40819      18540.524      19349.615     -111.78178    
     86000   290.75902      356.02668      18604.468      19376.509     -604.55877    
     87000   307.36162      385.89988      18568.603      19394.272      120.04015    
     88000   298.02771      403.13407      18562.342      19391.891      632.40318    
     89000   293.45562      367.39754      18596.616      19383.887     -276.88743    
     90000   302.97679      356.41879      18589.086      19379.001     -508.50813    
Loop time of 3.49761 on 48 procs for 10000 steps with 481 atoms

Performance: 12.351 ns/day, 1.943 hours/ns, 2859.094 timesteps/s, 1.375 Matom-step/s
100.0% CPU use with 48 MPI tasks x 1 OpenMP threads

MPI task timing breakdown:
Section |  min time  |  avg time  |  max time  |%varavg| %total
---------------------------------------------------------------
Pair    | 0.0033852  | 0.15507    | 0.89838    |  62.3 |  4.43
Bond    | 0.0010422  | 0.19806    | 1.4072     |  71.5 |  5.66
Neigh   | 0.0080351  | 0.008906   | 0.0097384  |   0.4 |  0.25
Comm    | 1.0803     | 2.5786     | 3.1922     |  42.7 | 73.73
Output  | 0.0022098  | 0.0035436  | 0.0049959  |   1.5 |  0.10
Modify  | 0.11377    | 0.44104    | 1.8065     |  90.2 | 12.61
Other   |            | 0.1123     |            |       |  3.21

Nlocal:        10.0208 ave          50 max           0 min
Histogram: 22 13 4 1 0 2 0 3 1 2
Nghost:        1818.88 ave        2348 max        1173 min
Histogram: 8 0 0 0 24 0 0 0 0 16
Neighs:              0 ave           0 max           0 min
Histogram: 48 0 0 0 0 0 0 0 0 0

Total # of neighbors = 0
Ave neighs/atom = 0
Ave special neighs/atom = 15.567568
Neighbor list builds = 20
Dangerous builds = 0
fix             myat1 all ave/time 1000 10 10000 v_zave v_zdes file simulation_data/abpot/${cpt}.dat
fix             myat1 all ave/time 1000 10 10000 v_zave v_zdes file simulation_data/abpot/2.dat
run             50000
Generated 0 of 1 mixed pair_coeff terms from geometric mixing rule
Per MPI rank memory allocation (min/avg/max) = 13.32 | 13.72 | 14.98 Mbytes
   Step          Temp          E_pair         E_mol          TotEng         Press     
     90000   302.97679      356.41879      18589.086      19379.001     -508.50813    
     91000   305.99616      366.77089      18571.234      19375.82      -294.40342    
     92000   297.37668      386.95669      18546.696      19359.136      205.85355    
     93000   294.40042      395.57773      18522.952      19339.755      402.15094    
     94000   300.94675      365.27604      18531.103      19326.97      -376.27796    
     95000   289.68083      363.72777      18547.933      19326.133     -371.04454    
     96000   281.44811      375.61819      18552.103      19330.414     -70.492194    
     97000   294.99029      392.86432      18536.635      19351.568      353.74325    
     98000   303.04881      382.97854      18561.092      19377.669      206.28262    
     99000   303.55743      359.68757      18597.937      19391.952     -493.54626    
    100000   314.44015      375.99358      18568.66       19394.551     -110.96387    
    101000   299.53369      388.78626      18564.953      19382.309      189.37682    
    102000   302.71371      387.06722      18542.024      19362.211      284.92353    
    103000   291.82734      377.25159      18551.297      19346.092     -106.5218     
    104000   289.46399      363.1145       18560.54       19337.816     -396.41349    
    105000   295.31061      374.70621      18536.756      19333.989     -61.380594    
    106000   298.55319      390.67236      18515.696      19333.535      307.23413    
    107000   301.34336      376.40095      18526.299      19333.859      43.320505    
    108000   303.59635      368.15641      18536.551      19339.089     -201.30908    
    109000   295.70476      369.24841      18562.797      19355.137     -255.80179    
    110000   307.26644      387.25189      18554.22       19381.106      282.62068    
    111000   319.7494       387.28785      18547.99       19392.772      153.53144    
    112000   300.93225      372.44326      18589.083      19392.097     -235.36051    
    113000   312.23785      367.03304      18568.238      19382.017     -254.09332    
    114000   298.64162      381.17236      18559.534      19367.999     -18.842701    
    115000   289.88652      380.45714      18559.99       19355.214      37.173997    
    116000   303.22233      376.77263      18542.851      19353.471     -112.07004    
    117000   280.81409      374.55749      18578.442      19354.785     -43.330338    
    118000   314.74635      366.92095      18537.245      19354.501     -241.33357    
    119000   295.93904      369.43876      18555.95       19348.815     -233.84249    
    120000   305.98203      386.39531      18524.374      19348.565      249.08233    
    121000   296.95583      378.35545      18548.371      19351.608     -35.312711    
    122000   299.55132      371.92076      18561.805      19362.32      -100.2639     
    123000   288.26145      377.74723      18583.975      19374.163     -59.953414    
    124000   317.60773      376.19118      18554.383      19385.004      106.3434     
    125000   316.89566      378.42112      18553.607      19385.439      34.22096     
    126000   297.26033      378.26369      18575.089      19378.669     -106.94083    
    127000   307.87312      372.67618      18553.092      19366.27      -89.750518    
    128000   293.84454      372.69221      18551.645      19344.767     -45.886243    
    129000   290.44689      376.14575      18543.879      19335.593     -58.76818     
    130000   309.31403      378.85367      18515.646      19337.063      95.78199     
    131000   291.16212      375.20842      18545.996      19337.796     -105.8443     
    132000   292.85042      373.39253      18546.271      19338.67      -222.52182    
    133000   294.15566      374.33431      18551.335      19346.544      9.9077331    
    134000   301.74416      376.84382      18552.827      19361.403      48.901628    
    135000   318.24853      374.49176      18551.134      19380.972     -126.9666     
    136000   315.53903      378.04372      18576.768      19406.282      3.6618688    
    137000   309.27577      372.51572      18598.66       19413.684     -274.85836    
    138000   315.81049      371.97824      18576.439      19400.276     -169.4944     
    139000   311.74356      389.41305      18554.989      19390.441      280.30736    
    140000   313.86439      378.12015      18552.043      19379.237      73.562518    
Loop time of 15.6503 on 48 procs for 50000 steps with 481 atoms

Performance: 13.802 ns/day, 1.739 hours/ns, 3194.835 timesteps/s, 1.537 Matom-step/s
100.0% CPU use with 48 MPI tasks x 1 OpenMP threads

MPI task timing breakdown:
Section |  min time  |  avg time  |  max time  |%varavg| %total
---------------------------------------------------------------
Pair    | 0.016902   | 0.73902    | 4.6685     | 136.5 |  4.72
Bond    | 0.0052314  | 0.94515    | 4.9734     | 149.9 |  6.04
Neigh   | 0.024007   | 0.027046   | 0.030039   |   1.0 |  0.17
Comm    | 5.0659     | 11.51      | 14.108     |  86.8 | 73.55
Output  | 0.0083482  | 0.014415   | 0.020579   |   3.3 |  0.09
Modify  | 0.54957    | 1.8633     | 7.4852     | 178.9 | 11.91
Other   |            | 0.5512     |            |       |  3.52

Nlocal:        10.0208 ave          50 max           0 min
Histogram: 23 11 6 0 0 1 1 2 1 3
Nghost:        1818.35 ave        2348 max        1174 min
Histogram: 8 0 0 0 24 0 0 0 0 16
Neighs:              0 ave           0 max           0 min
Histogram: 48 0 0 0 0 0 0 0 0 0

Total # of neighbors = 0
Ave neighs/atom = 0
Ave special neighs/atom = 15.567568
Neighbor list builds = 75
Dangerous builds = 0
unfix           myat1
next            cpt
jump            SELF loop
variable        zdes equal  -15+0.60*(${cpt}-1)
variable        zdes equal  -15+0.60*(3-1)
variable        zave equal xcm(H2,z)
fix             mytth2 H2 spring tether ${k1} 2.5 2.5 ${zdes} 0
fix             mytth2 H2 spring tether 0.5 2.5 2.5 ${zdes} 0
fix             mytth2 H2 spring tether 0.5 2.5 2.5 -13.8 0
run             10000
Generated 0 of 1 mixed pair_coeff terms from geometric mixing rule
Per MPI rank memory allocation (min/avg/max) = 13.32 | 13.73 | 14.98 Mbytes
   Step          Temp          E_pair         E_mol          TotEng         Press     
    140000   313.86439      378.12015      18552.043      19379.237      73.562518    
    141000   303.31107      367.29983      18562.152      19363.426     -265.67043    
    142000   313.19607      373.42975      18533.582      19355.129     -137.7505     
    143000   305.94418      380.88257      18529.718      19348.342      167.31011    
    144000   294.94584      388.95903      18525.567      19336.531      284.31621    
    145000   297.71942      370.65679      18537.338      19333.969     -131.47597    
    146000   301.31705      372.72047      18535.477      19339.318     -103.84418    
    147000   287.60305      378.51219      18559.169      19349.18      -75.41281     
    148000   286.49194      378.03535      18581.224      19369.169      56.954608    
    149000   307.81743      378.50971      18569.636      19388.568      18.444333    
    150000   323.94514      380.04255      18553.503      19397.043     -177.37059    
Loop time of 3.17665 on 48 procs for 10000 steps with 481 atoms

Performance: 13.599 ns/day, 1.765 hours/ns, 3147.967 timesteps/s, 1.514 Matom-step/s
100.0% CPU use with 48 MPI tasks x 1 OpenMP threads

MPI task timing breakdown:
Section |  min time  |  avg time  |  max time  |%varavg| %total
---------------------------------------------------------------
Pair    | 0.0033926  | 0.14849    | 0.95742    |  61.4 |  4.67
Bond    | 0.0010285  | 0.18863    | 1.0248     |  67.4 |  5.94
Neigh   | 0.0046687  | 0.0054282  | 0.0060643  |   0.5 |  0.17
Comm    | 1.0088     | 2.3459     | 2.8874     |  38.9 | 73.85
Output  | 0.0017055  | 0.0028465  | 0.0040505  |   1.4 |  0.09
Modify  | 0.11633    | 0.36056    | 1.5514     |  80.7 | 11.35
Other   |            | 0.1248     |            |       |  3.93

Nlocal:        10.0208 ave          48 max           0 min
Histogram: 22 12 6 0 0 0 4 0 0 4
Nghost:        1818.35 ave        2347 max        1176 min
Histogram: 8 0 0 0 24 0 0 0 0 16
Neighs:              0 ave           0 max           0 min
Histogram: 48 0 0 0 0 0 0 0 0 0

Total # of neighbors = 0
Ave neighs/atom = 0
Ave special neighs/atom = 15.567568
Neighbor list builds = 15
Dangerous builds = 0
fix             myat1 all ave/time 1000 10 10000 v_zave v_zdes file simulation_data/abpot/${cpt}.dat
fix             myat1 all ave/time 1000 10 10000 v_zave v_zdes file simulation_data/abpot/3.dat
run             50000
Generated 0 of 1 mixed pair_coeff terms from geometric mixing rule
Per MPI rank memory allocation (min/avg/max) = 13.32 | 13.73 | 14.98 Mbytes
   Step          Temp          E_pair         E_mol          TotEng         Press     
    150000   323.94514      380.04255      18553.503      19397.043     -177.37059    
    151000   322.15558      377.42434      18554.577      19392.938      6.2452018    
    152000   316.02551      376.73594      18549.833      19378.735     -47.429252    
    153000   297.69651      377.9957       18560.992      19364.929     -50.461213    
    154000   290.09693      369.13294      18570.515      19354.715     -83.979368    
    155000   295.21983      374.10154      18555.83       19352.328     -49.632482    
    156000   306.26682      379.22648      18537.64       19355.07       46.27463     
    157000   302.51746      372.43077      18548.867      19354.136     -22.896047    
    158000   292.42877      374.79296      18559.621      19352.818     -154.32158    
    159000   310.00973      375.26022      18536.393      19355.212      19.85847     
    160000   291.98959      378.44852      18562.114      19358.338     -46.260192    
    161000   300.94182      380.72166      18560.846      19372.152     -45.209023    
    162000   314.87834      376.35815      18566.077      19392.96      -10.37171     
    163000   315.35866      370.56495      18580.259      19402.035     -200.37646    
    164000   316.23627      372.77836      18571.16       19396.406     -50.878127    
    165000   316.32861      386.1223       18536.384      19375.106      251.56852    
    166000   294.83341      372.08947      18559.96       19353.893     -169.32606    
    167000   306.26692      370.10029      18539.985      19348.289     -157.59775    
    168000   306.34093      367.16721      18537.891      19343.367     -107.45365    
    169000   301.33508      382.46496      18528.431      19342.043      183.78428    
    170000   286.50256      377.72903      18557.399      19345.052      136.28544    
    171000   284.58144      367.10255      18574.996      19349.274     -301.1263     
    172000   304.88755      373.62746      18551.324      19361.181     -124.19288    
    173000   297.65134      382.80316      18572.175      19380.855      128.67456    
    174000   316.63387      388.46609      18553.901      19395.404      187.38502    
    175000   304.05997      367.8562       18599.153      19402.055     -481.37917    
    176000   312.32258      371.85123      18572.389      19391.108     -74.623744    
    177000   293.49343      378.58143      18561.025      19359.533     -125.12163    
    178000   302.97925      376.48519      18532.999      19342.984     -47.972859    
    179000   302.44654      375.02257      18532.114      19339.873     -35.50425     
    180000   295.5248       368.12104      18546.851      19337.806     -217.39075    
    181000   287.89805      373.56811      18552.293      19337.782     -173.53891    
    182000   297.84798      385.86858      18531.588      19343.614      268.53151    
    183000   304.07128      376.18718      18539.391      19350.64      -102.62515    
    184000   313.52386      368.20367      18536.148      19352.938     -171.16902    
    185000   311.29918      373.09676      18530.229      19348.73      -42.758795    
    186000   296.07209      376.00815      18546.67       19346.295      63.032753    
    187000   296.19798      384.89147      18538.289      19346.977      268.00347    
    188000   301.85724      375.92509      18537.727      19345.546     -38.563835    
    189000   294.00972      364.16494      18557.341      19342.171     -262.23593    
    190000   306.2339       374.57286      18521.84       19334.569     -82.470054    
    191000   292.35314      386.85133      18522.923      19328.07       179.82928    
    192000   295.78909      374.69797      18528.956      19326.866     -23.082796    
    193000   294.31974      368.43763      18543.239      19332.786     -228.40635    
    194000   293.40822      372.19311      18552.683      19344.682     -264.97707    
    195000   305.08325      380.13427      18543.568      19360.212      36.012522    
    196000   318.26565      387.15433      18529.143      19371.668      138.03085    
    197000   313.07296      382.9101       18550.262      19381.114      135.30998    
    198000   305.27804      373.2602       18568.233      19378.282     -138.86519    
    199000   315.38579      375.62964      18540.503      19367.383      1.6313125    
    200000   289.60399      376.35552      18559.034      19349.751     -58.478636    
Loop time of 15.7097 on 48 procs for 50000 steps with 481 atoms

Performance: 13.749 ns/day, 1.746 hours/ns, 3182.742 timesteps/s, 1.531 Matom-step/s
100.0% CPU use with 48 MPI tasks x 1 OpenMP threads

MPI task timing breakdown:
Section |  min time  |  avg time  |  max time  |%varavg| %total
---------------------------------------------------------------
Pair    | 0.017042   | 0.73129    | 4.7852     | 137.7 |  4.65
Bond    | 0.0051712  | 0.93343    | 4.9444     | 150.5 |  5.94
Neigh   | 0.028138   | 0.03198    | 0.03527    |   1.0 |  0.20
Comm    | 5.2764     | 11.549     | 14.16      |  88.8 | 73.51
Output  | 0.0081722  | 0.013725   | 0.01932    |   3.0 |  0.09
Modify  | 0.54202    | 1.9033     | 8.0219     | 184.2 | 12.12
Other   |            | 0.5473     |            |       |  3.48

Nlocal:        10.0208 ave          44 max           0 min
Histogram: 20 11 9 0 0 0 0 1 4 3
Nghost:        1818.88 ave        2346 max        1180 min
Histogram: 8 0 0 0 24 0 0 0 0 16
Neighs:              0 ave           0 max           0 min
Histogram: 48 0 0 0 0 0 0 0 0 0

Total # of neighbors = 0
Ave neighs/atom = 0
Ave special neighs/atom = 15.567568
Neighbor list builds = 87
Dangerous builds = 0
unfix           myat1
next            cpt
jump            SELF loop
variable        zdes equal  -15+0.60*(${cpt}-1)
variable        zdes equal  -15+0.60*(4-1)
variable        zave equal xcm(H2,z)
fix             mytth2 H2 spring tether ${k1} 2.5 2.5 ${zdes} 0
fix             mytth2 H2 spring tether 0.5 2.5 2.5 ${zdes} 0
fix             mytth2 H2 spring tether 0.5 2.5 2.5 -13.2 0
run             10000
Generated 0 of 1 mixed pair_coeff terms from geometric mixing rule
Per MPI rank memory allocation (min/avg/max) = 13.32 | 13.73 | 14.98 Mbytes
   Step          Temp          E_pair         E_mol          TotEng         Press     
    200000   289.60399      376.35552      18559.034      19349.751     -58.478636    
    201000   295.9329       378.42901      18529.505      19331.352     -100.79312    
    202000   294.49588      377.8437       18525.744      19324.949     -48.14858     
    203000   295.47029      379.63682      18524.209      19326.602      49.038459    
    204000   300.37109      370.23755      18529.319      19329.324     -214.20363    
    205000   298.69371      374.15871      18530.202      19331.728     -125.55266    
    206000   294.83559      378.83106      18540.479      19341.158      57.456689    
    207000   295.03352      382.50823      18551.276      19355.914      31.43589     
    208000   301.21749      379.62546      18558.052      19368.656     -9.1377752    
    209000   302.02848      369.57248      18571.692      19373.403     -285.70072    
    210000   313.088        374.15991      18547.756      19369.879     -70.763857    
Loop time of 3.07467 on 48 procs for 10000 steps with 481 atoms

Performance: 14.050 ns/day, 1.708 hours/ns, 3252.378 timesteps/s, 1.564 Matom-step/s
100.0% CPU use with 48 MPI tasks x 1 OpenMP threads

MPI task timing breakdown:
Section |  min time  |  avg time  |  max time  |%varavg| %total
---------------------------------------------------------------
Pair    | 0.0033964  | 0.14587    | 0.91362    |  61.2 |  4.74
Bond    | 0.0010313  | 0.1857     | 1.0727     |  67.9 |  6.04
Neigh   | 0.0081166  | 0.0090257  | 0.0098512  |   0.5 |  0.29
Comm    | 0.99629    | 2.2491     | 2.7931     |  40.5 | 73.15
Output  | 0.0016766  | 0.0027367  | 0.0038401  |   1.3 |  0.09
Modify  | 0.10973    | 0.37603    | 1.6468     |  83.4 | 12.23
Other   |            | 0.1062     |            |       |  3.45

Nlocal:        10.0208 ave          46 max           0 min
Histogram: 23 9 7 1 0 0 0 4 1 3
Nghost:        1818.35 ave        2348 max        1177 min
Histogram: 8 0 0 0 24 0 0 0 0 16
Neighs:              0 ave           0 max           0 min
Histogram: 48 0 0 0 0 0 0 0 0 0

Total # of neighbors = 0
Ave neighs/atom = 0
Ave special neighs/atom = 15.567568
Neighbor list builds = 24
Dangerous builds = 0
fix             myat1 all ave/time 1000 10 10000 v_zave v_zdes file simulation_data/abpot/${cpt}.dat
fix             myat1 all ave/time 1000 10 10000 v_zave v_zdes file simulation_data/abpot/4.dat
run             50000
Generated 0 of 1 mixed pair_coeff terms from geometric mixing rule
Per MPI rank memory allocation (min/avg/max) = 13.32 | 13.73 | 14.98 Mbytes
   Step          Temp          E_pair         E_mol          TotEng         Press     
    210000   313.088        374.15991      18547.756      19369.879     -70.763857    
    211000   305.55159      382.89612      18538.132      19358.207      191.59203    
    212000   290.84642      385.44051      18532.597      19334.177      226.33355    
    213000   304.22411      368.57702      18516.719      19320.576     -138.61856    
    214000   296.42463      370.71099      18519.296      19314.128     -243.48858    
    215000   293.64094      382.38656      18510.371      19312.896      173.57669    
    216000   291.44942      379.60556      18521.293      19317.901      96.186104    
    217000   297.17451      378.01188      18527.597      19330.803      11.81423     
    218000   289.89846      371.83465      18565.677      19352.295     -200.83674    
    219000   308.84779      380.73633      18543.377      19366.009     -16.942734    
    220000   301.32631      387.25953      18544.869      19363.263      159.54991    
    221000   303.48683      382.56408      18542.507      19359.297      81.246687    
    222000   306.31871      367.65953      18549.931      19355.867     -305.32426    
    223000   314.82685      368.53582      18534.515      19353.502     -281.59589    
    224000   305.82553      381.97698      18525.263      19344.812      48.839829    
    225000   298.60861      383.8286       18527.127      19338.201      133.89905    
    226000   295.50724      375.97271      18534.747      19333.528     -31.527492    
    227000   286.44287      365.5797       18554.963      19330.382     -305.48341    
    228000   282.37563      375.1843       18546.722      19325.927     -6.7839892    
    229000   281.01004      380.57314      18533.929      19316.568     -61.324117    
    230000   294.11543      379.72437      18516.825      19317.367      31.705737    
    231000   301.63271      368.79119      18523.078      19323.442     -245.302      
    232000   275.54642      369.46228      18567.093      19330.804     -193.72141    
    233000   301.68818      378.68045      18537.506      19347.838      34.616364    
    234000   312.62137      380.1216       18537.693      19365.11       76.739429    
    235000   307.39102      380.04527      18552.392      19372.249      54.861269    
    236000   309.7704       373.11872      18553.895      19370.23      -28.528394    
    237000   300.90803      369.90997      18559.428      19359.874     -269.85707    
    238000   292.81452      382.5801       18543.436      19344.972      27.798843    
    239000   295.78814      375.77177      18523.985      19322.967     -38.607089    
    240000   296.2224       375.25219      18511.246      19310.33      -85.206104    
    241000   285.2328       375.60484      18526.007      19309.72      -18.977966    
    242000   290.62519      375.60266      18525.327      19316.752      78.41717     
    243000   279.15723      379.50219      18544.029      19322.946     -67.893805    
    244000   297.03298      380.82236      18523.639      19329.453     -96.081047    
    245000   307.13936      371.8808       18525.235      19336.567     -87.494647    
    246000   298.45046      378.25635      18541.819      19347.094     -35.450216    
    247000   303.5065       373.94528      18550.053      19358.252     -7.6234249    
    248000   310.22971      380.90258      18541.052      19365.828      100.02798    
    249000   315.50718      379.14077      18532.604      19363.169     -55.047424    
    250000   301.42253      371.69044      18545.775      19348.738     -49.601726    
    251000   289.88398      373.10119      18529.252      19317.116      8.4804801    
    252000   279.38377      377.06355      18520.041      19296.843     -26.015487    
    253000   283.04093      380.39214      18512.158      19297.522      72.42322     
    254000   286.64801      377.50019      18524.042      19311.675     -121.66209    
    255000   301.78918      372.5628       18524.939      19329.299     -152.15239    
    256000   299.38975      370.34096      18542.778      19341.483     -231.77601    
    257000   295.43909      382.89751      18542.414      19348.022      85.803728    
    258000   292.80307      382.41996      18552.975      19354.334      215.72371    
    259000   312.4218       369.02654      18546.03       19362.066     -252.19866    
    260000   312.90848      367.76686      18547.815      19363.288     -209.10198    
Loop time of 15.2115 on 48 procs for 50000 steps with 481 atoms

Performance: 14.200 ns/day, 1.690 hours/ns, 3286.992 timesteps/s, 1.581 Matom-step/s
100.0% CPU use with 48 MPI tasks x 1 OpenMP threads

MPI task timing breakdown:
Section |  min time  |  avg time  |  max time  |%varavg| %total
---------------------------------------------------------------
Pair    | 0.016629   | 0.72626    | 4.5665     | 137.0 |  4.77
Bond    | 0.0052152  | 0.92616    | 5.0154     | 151.2 |  6.09
Neigh   | 0.023511   | 0.026346   | 0.028854   |   0.8 |  0.17
Comm    | 5.0064     | 11.113     | 13.762     |  90.0 | 73.06
Output  | 0.0082533  | 0.013464   | 0.018627   |   2.8 |  0.09
Modify  | 0.5715     | 1.8666     | 8.0885     | 183.2 | 12.27
Other   |            | 0.5397     |            |       |  3.55

Nlocal:        10.0208 ave          50 max           0 min
Histogram: 24 9 7 0 0 1 2 1 2 2
Nghost:        1818.35 ave        2348 max        1173 min
Histogram: 8 0 0 0 24 0 0 0 0 16
Neighs:              0 ave           0 max           0 min
Histogram: 48 0 0 0 0 0 0 0 0 0

Total # of neighbors = 0
Ave neighs/atom = 0
Ave special neighs/atom = 15.567568
Neighbor list builds = 72
Dangerous builds = 0
unfix           myat1
next            cpt
jump            SELF loop
variable        zdes equal  -15+0.60*(${cpt}-1)
variable        zdes equal  -15+0.60*(5-1)
variable        zave equal xcm(H2,z)
fix             mytth2 H2 spring tether ${k1} 2.5 2.5 ${zdes} 0
fix             mytth2 H2 spring tether 0.5 2.5 2.5 ${zdes} 0
fix             mytth2 H2 spring tether 0.5 2.5 2.5 -12.6 0
run             10000
Generated 0 of 1 mixed pair_coeff terms from geometric mixing rule
Per MPI rank memory allocation (min/avg/max) = 13.32 | 13.73 | 14.98 Mbytes
   Step          Temp          E_pair         E_mol          TotEng         Press     
    260000   312.90848      367.76686      18547.815      19363.288     -209.10198    
    261000   306.48258      382.57623      18537.469      19358.557      152.24151    
    262000   287.23144      386.00881      18551.243      19348.22       181.07594    
    263000   301.26234      378.98831      18517.854      19327.885     -28.810009    
    264000   279.8436       367.2763       18530.775      19298.449     -286.27459    
    265000   287.93113      371.40124      18510.711      19294.081     -104.89515    
    266000   273.93733      385.25001      18520.792      19297.988      299.20592    
    267000   276.00241      388.56797      18530.307      19313.776      320.9429     
    268000   290.68519      366.17259      18544.946      19327.028     -340.66785    
    269000   298.40079      370.80486      18537.168      19334.921     -235.0481     
    270000   287.19195      378.67764      18552.871      19342.459     -4.4216132    
Loop time of 3.00451 on 48 procs for 10000 steps with 481 atoms

Performance: 14.378 ns/day, 1.669 hours/ns, 3328.325 timesteps/s, 1.601 Matom-step/s
100.0% CPU use with 48 MPI tasks x 1 OpenMP threads

MPI task timing breakdown:
Section |  min time  |  avg time  |  max time  |%varavg| %total
---------------------------------------------------------------
Pair    | 0.0033617  | 0.14536    | 0.89135    |  60.9 |  4.84
Bond    | 0.001036   | 0.18539    | 0.96471    |  67.2 |  6.17
Neigh   | 0.0047982  | 0.0054003  | 0.0059012  |   0.4 |  0.18
Comm    | 1.0138     | 2.1844     | 2.7308     |  39.5 | 72.71
Output  | 0.0015637  | 0.0025899  | 0.0036159  |   1.3 |  0.09
Modify  | 0.11682    | 0.37323    | 1.5711     |  79.4 | 12.42
Other   |            | 0.1081     |            |       |  3.60

Nlocal:        10.0208 ave          49 max           0 min
Histogram: 23 9 8 0 0 2 1 1 1 3
Nghost:        1818.35 ave        2348 max        1174 min
Histogram: 8 0 0 0 24 0 0 0 0 16
Neighs:              0 ave           0 max           0 min
Histogram: 48 0 0 0 0 0 0 0 0 0

Total # of neighbors = 0
Ave neighs/atom = 0
Ave special neighs/atom = 15.567568
Neighbor list builds = 15
Dangerous builds = 0
fix             myat1 all ave/time 1000 10 10000 v_zave v_zdes file simulation_data/abpot/${cpt}.dat
fix             myat1 all ave/time 1000 10 10000 v_zave v_zdes file simulation_data/abpot/5.dat
run             50000
Generated 0 of 1 mixed pair_coeff terms from geometric mixing rule
Per MPI rank memory allocation (min/avg/max) = 13.32 | 13.73 | 14.98 Mbytes
   Step          Temp          E_pair         E_mol          TotEng         Press     
    270000   287.19195      378.67764      18552.871      19342.459     -4.4216132    
    271000   308.25772      382.76437      18526.22       19350.036      52.07481     
    272000   308.29538      384.6769       18529.877      19355.659      270.94339    
    273000   303.08965      361.16017      18564.838      19359.656     -316.56349    
    274000   297.7488       371.13169      18553.261      19350.408     -20.156927    
    275000   306.91854      379.70186      18508.769      19327.606      190.9598     
    276000   289.60119      380.88306      18509.339      19304.581      159.86296    
    277000   291.33389      371.80553      18510.197      19298.839     -94.984254    
    278000   284.53552      361.85772      18537.614      19306.582     -364.58748    
    279000   288.52547      379.21539      18528.68       19320.714      147.30213    
    280000   302.1422       379.79018      18524.706      19336.798      209.17374    
    281000   314.77668      371.93565      18524.188      19346.502     -56.981483    
    282000   300.28515      372.96141      18545.25       19347.856     -93.418218    
    283000   313.36463      371.59778      18527.667      19347.623     -99.964172    
    284000   295.687        387.22594      18536.792      19347.084      263.69255    
    285000   294.5386       374.34983      18555.981      19351.754     -7.4038658    
    286000   291.61284      365.42252      18565.832      19348.491     -411.30878    
    287000   290.98051      379.83401      18540.543      19336.709     -27.658961    
    288000   288.34619      382.13684      18520.383      19315.082      269.84961    
    289000   280.66189      379.00413      18513.472      19294.044      18.898353    
    290000   283.84097      368.90408      18512.676      19287.697     -167.15035    
    291000   282.25524      366.78113      18520.809      19291.437     -249.93859    
    292000   284.62387      381.24528      18518.206      19306.688      31.070366    
    293000   286.07292      379.60845      18534.291      19323.21       137.37712    
    294000   293.9357       369.54682      18539.139      19329.245     -111.42617    
    295000   297.06818      365.57388      18542.282      19332.898     -279.15447    
    296000   285.24947      378.7515       18558.009      19344.893      99.487389    
    297000   312.34439      377.68937      18529.191      19353.779      12.144788    
    298000   293.90001      377.28138      18557.724      19355.514     -70.009903    
    299000   296.15725      372.67077      18561.456      19357.865     -106.76992    
    300000   316.37178      374.09155      18529.752      19356.505     -54.605258    
    301000   287.89381      377.61612      18556.096      19345.628      111.28242    
    302000   295.42636      380.72675      18525.889      19329.308      79.785625    
    303000   297.71285      370.98851      18519.816      19316.768     -157.07914    
    304000   299.38374      370.76854      18508.308      19307.431     -70.262382    
    305000   291.90486      378.48738      18509.546      19305.687     -21.492773    
    306000   288.0402       374.35713      18524.08       19310.562     -54.5162      
    307000   304.79945      376.73655      18516.714      19329.554      27.465238    
    308000   302.70424      370.88186      18543.466      19347.454     -114.08068    
    309000   309.65455      378.52658      18533.397      19354.974      138.83864    
    310000   307.09952      378.42401      18540.476      19358.295      53.157985    
    311000   331.47436      369.11188      18513.332      19356.714      10.395005    
    312000   297.96959      371.64371      18546.467      19344.442     -152.68944    
    313000   291.87585      377.80066      18538.275      19333.689     -15.365139    
    314000   290.78322      377.18626      18531.586      19324.821      26.61352     
    315000   301.41924      375.0297       18514.667      19320.964      12.684934    
    316000   298.73876      373.91471      18514.244      19315.591     -166.06983    
    317000   293.25536      375.86425      18523.076      19318.526      47.741035    
    318000   295.27363      378.67852      18532.826      19333.979      69.782786    
    319000   292.41957      375.00705      18559.03       19352.427     -131.78511    
    320000   298.47758      376.18447      18561.661      19364.904     -143.75963    
Loop time of 15.6539 on 48 procs for 50000 steps with 481 atoms

Performance: 13.798 ns/day, 1.739 hours/ns, 3194.095 timesteps/s, 1.536 Matom-step/s
100.0% CPU use with 48 MPI tasks x 1 OpenMP threads

MPI task timing breakdown:
Section |  min time  |  avg time  |  max time  |%varavg| %total
---------------------------------------------------------------
Pair    | 0.016291   | 0.7166     | 4.7107     | 136.2 |  4.58
Bond    | 0.0050415  | 0.91219    | 4.7594     | 149.3 |  5.83
Neigh   | 0.031394   | 0.035049   | 0.038436   |   1.0 |  0.22
Comm    | 5.5543     | 11.429     | 14.22      |  90.0 | 73.01
Output  | 0.0082099  | 0.013459   | 0.018546   |   2.8 |  0.09
Modify  | 0.58182    | 2.0051     | 8.5506     | 187.4 | 12.81
Other   |            | 0.5422     |            |       |  3.46

Nlocal:        10.0208 ave          46 max           0 min
Histogram: 22 12 6 0 0 0 1 1 4 2
Nghost:        1818.35 ave        2348 max        1183 min
Histogram: 8 0 0 0 24 0 0 0 0 16
Neighs:              0 ave           0 max           0 min
Histogram: 48 0 0 0 0 0 0 0 0 0

Total # of neighbors = 0
Ave neighs/atom = 0
Ave special neighs/atom = 15.567568
Neighbor list builds = 97
Dangerous builds = 0
unfix           myat1
next            cpt
jump            SELF loop
variable        zdes equal  -15+0.60*(${cpt}-1)
variable        zdes equal  -15+0.60*(6-1)
variable        zave equal xcm(H2,z)
fix             mytth2 H2 spring tether ${k1} 2.5 2.5 ${zdes} 0
fix             mytth2 H2 spring tether 0.5 2.5 2.5 ${zdes} 0
fix             mytth2 H2 spring tether 0.5 2.5 2.5 -12 0
run             10000
Generated 0 of 1 mixed pair_coeff terms from geometric mixing rule
Per MPI rank memory allocation (min/avg/max) = 13.32 | 13.73 | 14.98 Mbytes
   Step          Temp          E_pair         E_mol          TotEng         Press     
    320000   298.47758      376.18447      18561.661      19364.904     -143.75963    
    321000   313.24379      373.15583      18552.053      19373.394     -83.071185    
    322000   303.04056      377.05604      18566.104      19376.747     -27.91013     
    323000   299.44403      380.14799      18557.371      19365.96       82.118837    
    324000   296.48113      369.76683      18553.476      19347.445     -146.56731    
    325000   289.93348      373.76591      18543.482      19332.082     -168.62699    
    326000   274.91199      378.09458      18552.146      19323.582     -10.860361    
    327000   298.16311      377.34167      18519.284      19323.234      95.484517    
    328000   283.13944      377.8502       18543.499      19326.462     -28.854201    
    329000   306.08101      366.14949      18530.648      19334.735     -212.39717    
    330000   293.09996      376.30125      18547.507      19343.172      56.656117    
Loop time of 3.10154 on 48 procs for 10000 steps with 481 atoms

Performance: 13.929 ns/day, 1.723 hours/ns, 3224.200 timesteps/s, 1.551 Matom-step/s
100.0% CPU use with 48 MPI tasks x 1 OpenMP threads

MPI task timing breakdown:
Section |  min time  |  avg time  |  max time  |%varavg| %total
---------------------------------------------------------------
Pair    | 0.003283   | 0.14262    | 0.963      |  61.3 |  4.60
Bond    | 0.00099445 | 0.18219    | 0.93526    |  66.4 |  5.87
Neigh   | 0.0071187  | 0.00789    | 0.0086613  |   0.5 |  0.25
Comm    | 1.0524     | 2.2654     | 2.8181     |  40.0 | 73.04
Output  | 0.0016094  | 0.0026511  | 0.003785   |   1.3 |  0.09
Modify  | 0.10656    | 0.39228    | 1.6733     |  82.8 | 12.65
Other   |            | 0.1085     |            |       |  3.50

Nlocal:        10.0208 ave          49 max           0 min
Histogram: 22 11 7 0 0 2 1 2 0 3
Nghost:        1818.35 ave        2347 max        1174 min
Histogram: 8 0 0 0 24 0 0 0 0 16
Neighs:              0 ave           0 max           0 min
Histogram: 48 0 0 0 0 0 0 0 0 0

Total # of neighbors = 0
Ave neighs/atom = 0
Ave special neighs/atom = 15.567568
Neighbor list builds = 22
Dangerous builds = 0
fix             myat1 all ave/time 1000 10 10000 v_zave v_zdes file simulation_data/abpot/${cpt}.dat
fix             myat1 all ave/time 1000 10 10000 v_zave v_zdes file simulation_data/abpot/6.dat
run             50000
Generated 0 of 1 mixed pair_coeff terms from geometric mixing rule
Per MPI rank memory allocation (min/avg/max) = 13.32 | 13.73 | 14.98 Mbytes
   Step          Temp          E_pair         E_mol          TotEng         Press     
    330000   293.09996      376.30125      18547.507      19343.172      56.656117    
    331000   289.14587      377.57684      18556.826      19348.109      56.254132    
    332000   291.36907      373.18325      18563.362      19353.433     -58.87442     
    333000   300.50774      369.02358      18567.487      19366.474     -42.631282    
    334000   312.41261      366.20144      18575.616      19388.814     -302.12444    
    335000   322.61088      381.90135      18561.457      19404.946      164.03722    
    336000   324.38214      383.21387      18558.547      19405.883      180.66795    
    337000   325.54162      369.59653      18555.053      19390.431     -81.519156    
    338000   298.69229      365.91149      18577.762      19371.039     -279.1196     
    339000   292.21744      378.31878      18560.865      19357.285     -53.080756    
    340000   304.43168      390.5689       18526.25       19352.396      481.47418    
    341000   299.05786      376.07922      18544.402      19348.37      -34.381843    
    342000   292.55143      361.79082      18564.885      19345.256     -317.06423    
    343000   281.25294      375.59973      18565.151      19343.165     -122.72931    
    344000   292.13387      380.96617      18541.742      19340.69       221.17807    
    345000   299.87167      381.63315      18527.46       19338.146      235.70155    
    346000   304.58606      360.63013      18546.051      19342.48      -299.97682    
    347000   311.47281      364.47192      18537.851      19347.975     -232.89453    
    348000   307.32256      381.68541      18535.982      19357.381      145.99632    
    349000   313.04075      377.94966      18541.884      19367.729      144.47448    
    350000   309.76424      373.19964      18557.733      19374.14      -165.86763    
    351000   310.75555      365.85585      18567.106      19377.587     -237.78426    
    352000   311.4628       376.0119       18546.391      19368.04      -13.873303    
    353000   299.79997      381.35613      18533.831      19344.138      116.59752    
    354000   281.89138      380.56077      18542.844      19326.732      78.314593    
    355000   275.18287      372.62539      18555.117      19321.471     -111.93046    
    356000   286.82001      376.81741      18539.848      19327.044      15.452485    
    357000   271.44807      376.35484      18569.5        19334.239     -64.692212    
    358000   300.23745      377.60017      18538.39       19345.566      39.429118    
    359000   309.97025      374.50205      18532.966      19350.97       30.830574    
    360000   301.00055      375.01711      18550.103      19355.788     -10.39347     
    361000   298.32352      371.67111      18558.894      19357.403     -244.51098    
    362000   295.46643      381.54061      18550.884      19355.174      73.344846    
    363000   311.33658      374.7728       18533.242      19353.471     -67.321503    
    364000   304.5796       380.01945      18532.666      19348.475      78.292713    
    365000   309.34919      371.49377      18531.568      19345.675     -6.5880642    
    366000   294.0071       373.16838      18547.66       19341.491     -68.118608    
    367000   308.37298      377.41663      18517.154      19335.787      18.859175    
    368000   293.65027      374.81425      18529.166      19324.132     -34.416091    
    369000   288.97468      376.62232      18523.019      19313.103      102.64158    
    370000   292.39385      373.06625      18511.014      19302.434      2.1418228    
    371000   277.89156      369.31473      18524.519      19291.438     -51.409038    
    372000   281.28383      372.37589      18511.75       19286.584     -0.50115583   
    373000   274.81472      375.75236      18522.171      19291.125      87.769262    
    374000   286.64967      377.0406       18521.307      19308.483      95.330501    
    375000   298.8951       372.32654      18529.117      19329.099     -32.787       
    376000   294.52637      366.81839      18553.031      19341.255     -190.78675    
    377000   308.52508      372.44829      18533.573      19347.456     -15.557596    
    378000   312.76784      376.77295      18521.237      19345.515      119.1787     
    379000   298.24282      376.05085      18538.865      19341.638     -20.020988    
    380000   290.27635      368.73928      18553.125      19337.189     -218.58201    
Loop time of 15.6625 on 48 procs for 50000 steps with 481 atoms

Performance: 13.791 ns/day, 1.740 hours/ns, 3192.341 timesteps/s, 1.536 Matom-step/s
100.0% CPU use with 48 MPI tasks x 1 OpenMP threads

MPI task timing breakdown:
Section |  min time  |  avg time  |  max time  |%varavg| %total
---------------------------------------------------------------
Pair    | 0.01646    | 0.71496    | 4.8268     | 136.6 |  4.56
Bond    | 0.0050443  | 0.91224    | 4.4247     | 148.1 |  5.82
Neigh   | 0.028      | 0.030966   | 0.034057   |   0.9 |  0.20
Comm    | 5.3945     | 11.433     | 14.182     |  89.7 | 72.99
Output  | 0.0079295  | 0.013133   | 0.018304   |   2.9 |  0.08
Modify  | 0.55598    | 2.0178     | 8.5605     | 187.4 | 12.88
Other   |            | 0.5408     |            |       |  3.45

Nlocal:        10.0208 ave          46 max           0 min
Histogram: 23 11 4 2 0 0 1 2 1 4
Nghost:        1818.35 ave        2346 max        1180 min
Histogram: 8 0 0 0 24 0 0 0 0 16
Neighs:              0 ave           0 max           0 min
Histogram: 48 0 0 0 0 0 0 0 0 0

Total # of neighbors = 0
Ave neighs/atom = 0
Ave special neighs/atom = 15.567568
Neighbor list builds = 86
Dangerous builds = 0
unfix           myat1
next            cpt
jump            SELF loop
variable        zdes equal  -15+0.60*(${cpt}-1)
variable        zdes equal  -15+0.60*(7-1)
variable        zave equal xcm(H2,z)
fix             mytth2 H2 spring tether ${k1} 2.5 2.5 ${zdes} 0
fix             mytth2 H2 spring tether 0.5 2.5 2.5 ${zdes} 0
fix             mytth2 H2 spring tether 0.5 2.5 2.5 -11.4 0
run             10000
Generated 0 of 1 mixed pair_coeff terms from geometric mixing rule
Per MPI rank memory allocation (min/avg/max) = 13.32 | 13.74 | 14.98 Mbytes
   Step          Temp          E_pair         E_mol          TotEng         Press     
    380000   290.27635      368.73928      18553.125      19337.189     -218.58201    
    381000   304.20606      367.56293      18529.774      19332.592     -126.34733    
    382000   297.14317      377.66179      18518.4        19321.211      21.846504    
    383000   315.1596       379.30408      18479.972      19310.203      248.69672    
    384000   296.57564      371.78786      18504.045      19300.17       13.065595    
    385000   286.54767      365.30765      18518.624      19293.921     -290.17657    
    386000   289.87221      374.46541      18503.751      19292.963     -37.630013    
    387000   292.7806       380.38785      18515.255      19314.55       130.09482    
    388000   280.12832      379.142        18555.512      19335.458     -132.79086    
    389000   295.29846      364.43713      18562.91       19349.857     -195.59369    
    390000   320.24968      372.79334      18523.189      19354.192     -184.54435    
Loop time of 3.02247 on 48 procs for 10000 steps with 481 atoms

Performance: 14.293 ns/day, 1.679 hours/ns, 3308.554 timesteps/s, 1.591 Matom-step/s
100.0% CPU use with 48 MPI tasks x 1 OpenMP threads

MPI task timing breakdown:
Section |  min time  |  avg time  |  max time  |%varavg| %total
---------------------------------------------------------------
Pair    | 0.0032538  | 0.14247    | 0.902      |  59.6 |  4.71
Bond    | 0.0010143  | 0.18224    | 0.96454    |  66.1 |  6.03
Neigh   | 0.00463    | 0.0051401  | 0.0056978  |   0.4 |  0.17
Comm    | 1.0786     | 2.1993     | 2.7444     |  39.0 | 72.77
Output  | 0.0018242  | 0.0028965  | 0.0039965  |   1.3 |  0.10
Modify  | 0.10766    | 0.38106    | 1.5947     |  79.7 | 12.61
Other   |            | 0.1094     |            |       |  3.62

Nlocal:        10.0208 ave          45 max           0 min
Histogram: 24 8 7 1 0 0 1 3 1 3
Nghost:        1818.35 ave        2348 max        1178 min
Histogram: 8 0 0 0 24 0 0 0 0 16
Neighs:              0 ave           0 max           0 min
Histogram: 48 0 0 0 0 0 0 0 0 0

Total # of neighbors = 0
Ave neighs/atom = 0
Ave special neighs/atom = 15.567568
Neighbor list builds = 15
Dangerous builds = 0
fix             myat1 all ave/time 1000 10 10000 v_zave v_zdes file simulation_data/abpot/${cpt}.dat
fix             myat1 all ave/time 1000 10 10000 v_zave v_zdes file simulation_data/abpot/7.dat
run             50000
Generated 0 of 1 mixed pair_coeff terms from geometric mixing rule
Per MPI rank memory allocation (min/avg/max) = 13.32 | 13.74 | 14.98 Mbytes
   Step          Temp          E_pair         E_mol          TotEng         Press     
    390000   320.24968      372.79334      18523.189      19354.192     -184.54435    
    391000   310.80024      377.2665       18531.496      19353.452      2.2004388    
    392000   301.96283      377.94362      18534.084      19344.073      121.58715    
    393000   300.26677      371.08144      18532.544      19333.244     -119.83328    
    394000   293.5358       366.03676      18538.625      19324.65      -156.71014    
    395000   295.81899      373.06858      18523.256      19319.579     -23.893336    
    396000   291.55283      375.89636      18520.557      19313.604     -9.4758906    
    397000   291.02982      378.36382      18514.441      19309.207      101.04932    
    398000   297.90696      366.68379      18516.744      19309.67       21.406941    
    399000   305.40144      369.69845      18519.496      19326.16      -64.619281    
    400000   300.61823      378.79918      18534.94       19343.86       148.97991    
    401000   321.27086      375.53781      18525.634      19360.842     -104.96018    
    402000   322.12765      368.02249      18538.985      19367.904     -227.20463    
    403000   306.05131      370.34886      18558.659      19366.902     -103.80309    
    404000   313.31265      374.28348      18538.794      19361.362     -30.602913    
    405000   313.85178      375.67854      18523.921      19348.656      86.310687    
    406000   296.3047       370.22025      18535.855      19330.025     -102.3431     
    407000   289.13582      368.2196       18534.419      19316.331     -125.42049    
    408000   289.45629      379.50144      18514.548      19308.2        175.95111    
    409000   292.12446      370.67252      18521.366      19310.007      2.6741475    
    410000   301.18865      375.08915      18520.628      19326.655     -109.02181    
    411000   295.27054      373.61002      18567.446      19363.526     -26.838428    
    412000   318.86578      372.55632      18547.203      19375.988      20.066211    
    413000   316.96836      375.07254      18543.665      19372.252     -88.342195    
    414000   313.53249      372.9622       18542.782      19364.343      30.889893    
    415000   313.00522      376.716        18527.464      19352.025      29.308124    
    416000   298.08727      364.39605      18550.012      19340.908     -324.38225    
    417000   287.77205      371.02568      18542.773      19325.539     -99.510592    
    418000   295.132        377.66652      18517.484      19317.422      98.538443    
    419000   279.3804       374.06211      18542.558      19316.355      63.974958    
    420000   294.42858      362.96221      18537.304      19321.532     -281.63172    
    421000   309.8108       375.23445      18520.016      19338.525      36.790913    
    422000   309.36246      376.12174      18539.499      19358.253     -59.580568    
    423000   317.43588      373.13991      18548.335      19375.659     -109.06716    
    424000   309.62519      375.22473      18565.328      19383.561     -13.469559    
    425000   322.93799      370.99977      18543.805      19376.861     -96.640397    
    426000   308.20336      380.24184      18550.233      19371.449      147.61786    
    427000   301.16378      376.7642       18552.581      19360.247      69.720682    
    428000   308.396        375.08701      18529.304      19345.641     -43.428916    
    429000   308.79417      368.79181      18523.004      19333.615     -143.09166    
    430000   294.7303       375.46999      18526.852      19324.019     -8.6188121    
    431000   300.25096      373.13887      18518.987      19321.722     -98.54351     
    432000   290.19694      373.62649      18534.15       19322.987     -23.880663    
    433000   287.3329       371.38871      18543.835      19326.336     -116.79306    
    434000   304.95902      368.2475       18540.291      19344.871     -108.86779    
    435000   320.47295      377.11022      18537.57       19373.209      75.967089    
    436000   313.55737      375.04774      18558.393      19382.075      9.3440341    
    437000   311.00772      373.76232      18557.309      19376.058     -2.8404707    
    438000   309.22697      369.86717      18549.795      19362.101     -165.00834    
    439000   305.14853      377.43808      18533.631      19347.672      3.4602129    
    440000   302.42216      376.71336      18524.243      19333.659      120.43414    
Loop time of 15.2679 on 48 procs for 50000 steps with 481 atoms

Performance: 14.147 ns/day, 1.696 hours/ns, 3274.851 timesteps/s, 1.575 Matom-step/s
100.0% CPU use with 48 MPI tasks x 1 OpenMP threads

MPI task timing breakdown:
Section |  min time  |  avg time  |  max time  |%varavg| %total
---------------------------------------------------------------
Pair    | 0.016439   | 0.71689    | 4.7688     | 136.5 |  4.70
Bond    | 0.0050701  | 0.91439    | 4.5971     | 148.8 |  5.99
Neigh   | 0.020906   | 0.023209   | 0.025455   |   0.8 |  0.15
Comm    | 5.1953     | 11.117     | 13.739     |  88.4 | 72.81
Output  | 0.0078343  | 0.013154   | 0.018406   |   2.9 |  0.09
Modify  | 0.53147    | 1.9394     | 8.0989     | 180.1 | 12.70
Other   |            | 0.5437     |            |       |  3.56

Nlocal:        10.0208 ave          49 max           0 min
Histogram: 21 14 5 0 0 1 2 1 1 3
Nghost:        1818.35 ave        2348 max        1175 min
Histogram: 8 0 0 0 24 0 0 0 0 16
Neighs:              0 ave           0 max           0 min
Histogram: 48 0 0 0 0 0 0 0 0 0

Total # of neighbors = 0
Ave neighs/atom = 0
Ave special neighs/atom = 15.567568
Neighbor list builds = 66
Dangerous builds = 0
unfix           myat1
next            cpt
jump            SELF loop
variable        zdes equal  -15+0.60*(${cpt}-1)
variable        zdes equal  -15+0.60*(8-1)
variable        zave equal xcm(H2,z)
fix             mytth2 H2 spring tether ${k1} 2.5 2.5 ${zdes} 0
fix             mytth2 H2 spring tether 0.5 2.5 2.5 ${zdes} 0
fix             mytth2 H2 spring tether 0.5 2.5 2.5 -10.8 0
run             10000
Generated 0 of 1 mixed pair_coeff terms from geometric mixing rule
Per MPI rank memory allocation (min/avg/max) = 13.32 | 13.74 | 14.98 Mbytes
   Step          Temp          E_pair         E_mol          TotEng         Press     
    440000   302.42216      376.71336      18524.243      19333.659      120.43414    
    441000   287.20802      369.62638      18548.55       19329.11      -164.54607    
    442000   291.12414      370.6624       18542.16       19329.359     -69.876428    
    443000   292.04949      377.42953      18535.55       19330.841      63.28617     
    444000   303.11995      377.59395      18518.871      19330.166      157.62761    
    445000   300.11839      374.8859       18525.074      19329.366      3.3208542    
    446000   309.1264       375.87049      18521.29       19339.455      31.736852    
    447000   292.16747      371.70915      18566.018      19355.757     -154.50468    
    448000   321.05398      372.40993      18539.377      19371.147     -68.583012    
    449000   319.40528      373.96049      18548.216      19379.178      106.87278    
    450000   313.23892      377.72944      18549.225      19375.134      143.40375    
Loop time of 3.1108 on 48 procs for 10000 steps with 481 atoms

Performance: 13.887 ns/day, 1.728 hours/ns, 3214.609 timesteps/s, 1.546 Matom-step/s
100.0% CPU use with 48 MPI tasks x 1 OpenMP threads

MPI task timing breakdown:
Section |  min time  |  avg time  |  max time  |%varavg| %total
---------------------------------------------------------------
Pair    | 0.0032962  | 0.1427     | 0.98711    |  61.3 |  4.59
Bond    | 0.0010133  | 0.1825     | 0.94637    |  66.8 |  5.87
Neigh   | 0.0047685  | 0.0052884  | 0.0058196  |   0.4 |  0.17
Comm    | 1.0188     | 2.2682     | 2.8016     |  40.2 | 72.91
Output  | 0.0015857  | 0.0026203  | 0.0037304  |   1.3 |  0.08
Modify  | 0.10185    | 0.40104    | 1.6895     |  83.1 | 12.89
Other   |            | 0.1085     |            |       |  3.49

Nlocal:        10.0208 ave          50 max           0 min
Histogram: 23 11 6 0 1 0 1 2 2 2
Nghost:        1818.88 ave        2348 max        1177 min
Histogram: 8 0 0 0 24 0 0 0 0 16
Neighs:              0 ave           0 max           0 min
Histogram: 48 0 0 0 0 0 0 0 0 0

Total # of neighbors = 0
Ave neighs/atom = 0
Ave special neighs/atom = 15.567568
Neighbor list builds = 15
Dangerous builds = 0
fix             myat1 all ave/time 1000 10 10000 v_zave v_zdes file simulation_data/abpot/${cpt}.dat
fix             myat1 all ave/time 1000 10 10000 v_zave v_zdes file simulation_data/abpot/8.dat
run             50000
Generated 0 of 1 mixed pair_coeff terms from geometric mixing rule
Per MPI rank memory allocation (min/avg/max) = 13.32 | 13.74 | 14.98 Mbytes
   Step          Temp          E_pair         E_mol          TotEng         Press     
    450000   313.23892      377.72944      18549.225      19375.134      143.40375    
    451000   301.10789      376.42922      18552.279      19359.53      -88.086148    
    452000   300.08188      370.36362      18538.712      19338.429     -55.806978    
    453000   288.04148      372.45642      18541.432      19326.015     -155.22307    
    454000   286.17353      376.9663       18532.713      19319.133     -38.108605    
    455000   300.36619      375.74065      18518.393      19323.894      148.99668    
    456000   287.57054      371.23846      18546.192      19328.884     -82.738335    
    457000   289.23875      367.01222      18553.787      19334.638     -167.25683    
    458000   315.87004      381.76844      18509.865      19343.577      139.12706    
    459000   296.09883      373.33191      18557.166      19354.153     -116.34366    
    460000   317.70091      381.02542      18528.024      19363.613      142.92948    
    461000   321.62001      365.72091      18552.329      19378.22      -229.56881    
    462000   308.34543      366.80307      18589.392      19397.372     -139.20485    
    463000   329.71608      376.92512      18562.155      19410.834      130.75918    
    464000   326.58787      385.71291      18551.219      19404.21       235.83146    
    465000   324.55841      372.5308       18541.619      19378.524      37.320897    
    466000   306.73523      371.32242      18550.234      19360.43      -58.941226    
    467000   299.20202      368.84922      18549.526      19346.47      -181.60642    
    468000   295.75156      371.35388      18545.773      19340.285     -76.344282    
    469000   293.74646      384.41929      18533.071      19337.78       207.78867    
    470000   298.83442      372.33733      18533.727      19333.633     -146.83953    
    471000   283.41809      375.30918      18547.394      19328.214     -158.1451     
    472000   290.70336      375.5248       18535.535      19326.995     -14.512365    
    473000   301.01523      375.84111      18526.432      19332.962     -7.3751888    
    474000   293.40798      378.8681       18549.78       19348.453      18.01926     
    475000   307.85117      374.68926      18550.042      19365.201     -84.04681     
    476000   324.46219      372.41444      18541.534      19378.185     -69.712495    
    477000   328.32876      377.71302      18535.589      19383.071      100.44368    
    478000   297.33226      375.32851      18572.297      19373.045     -123.42465    
    479000   309.08837      379.78941      18530.36       19352.39       104.8662     
    480000   294.39593      376.99632      18532.69       19330.905      38.699068    
    481000   302.25295      371.18069      18522.536      19326.177     -190.02004    
    482000   293.07033      378.10098      18526.735      19324.158      54.296576    
    483000   285.95061      373.94043      18543.059      19326.134     -67.020717    
    484000   294.84877      379.8227       18530.678      19332.367      151.05951    
    485000   301.37303      374.21568      18533.666      19339.083     -43.001047    
    486000   306.21792      371.21058      18541.747      19351.091     -122.21509    
    487000   305.42622      372.98223      18556.28       19366.262     -122.57724    
    488000   322.93082      372.05544      18547.32       19381.421     -189.25866    
    489000   311.79925      387.81688      18556.998      19390.934      195.55072    
    490000   304.99003      372.11079      18582.385      19390.872     -152.5496     
    491000   310.42313      370.36869      18562.338      19376.856     -234.3        
    492000   310.70814      378.12511      18528.778      19351.461     -55.586461    
    493000   302.25508      385.48658      18519.141      19337.091      341.36269    
    494000   295.67397      379.52152      18525.262      19327.83       89.307945    
    495000   277.27734      359.55943      18565.207      19321.492     -423.56839    
    496000   297.18129      371.22801      18527.046      19323.478     -166.76878    
    497000   298.52711      386.75748      18514.094      19327.98       222.78497    
    498000   289.27056      377.55029      18547.754      19339.189      43.170002    
    499000   326.31308      368.21965      18524.87       19359.974     -186.89143    
    500000   310.94402      365.51818      18558.482      19368.895     -345.00311    
Loop time of 19.8117 on 48 procs for 50000 steps with 481 atoms

Performance: 10.903 ns/day, 2.201 hours/ns, 2523.761 timesteps/s, 1.214 Matom-step/s
100.0% CPU use with 48 MPI tasks x 1 OpenMP threads

MPI task timing breakdown:
Section |  min time  |  avg time  |  max time  |%varavg| %total
---------------------------------------------------------------
Pair    | 0.017335   | 0.84977    | 5.0194     | 146.4 |  4.29
Bond    | 0.0052346  | 1.0503     | 6.749      | 161.7 |  5.30
Neigh   | 0.034295   | 0.036996   | 0.040021   |   0.7 |  0.19
Comm    | 7.5111     | 14.35      | 17.857     | 101.2 | 72.43
Output  | 0.011099   | 0.017386   | 0.0234     |   3.0 |  0.09
Modify  | 0.76957    | 2.8737     | 11.564     | 209.8 | 14.51
Other   |            | 0.6335     |            |       |  3.20

Nlocal:        10.0208 ave          44 max           0 min
Histogram: 23 7 10 0 0 0 0 2 2 4
Nghost:        1818.35 ave        2348 max        1179 min
Histogram: 8 0 0 0 24 0 0 0 0 16
Neighs:              0 ave           0 max           0 min
Histogram: 48 0 0 0 0 0 0 0 0 0

Total # of neighbors = 0
Ave neighs/atom = 0
Ave special neighs/atom = 15.567568
Neighbor list builds = 71
Dangerous builds = 0
unfix           myat1
next            cpt
jump            SELF loop
variable        zdes equal  -15+0.60*(${cpt}-1)
variable        zdes equal  -15+0.60*(9-1)
variable        zave equal xcm(H2,z)
fix             mytth2 H2 spring tether ${k1} 2.5 2.5 ${zdes} 0
fix             mytth2 H2 spring tether 0.5 2.5 2.5 ${zdes} 0
fix             mytth2 H2 spring tether 0.5 2.5 2.5 -10.2 0
run             10000
Generated 0 of 1 mixed pair_coeff terms from geometric mixing rule
Per MPI rank memory allocation (min/avg/max) = 13.32 | 13.74 | 14.98 Mbytes
   Step          Temp          E_pair         E_mol          TotEng         Press     
    500000   310.94402      365.51818      18558.482      19368.895     -345.00311    
    501000   312.46645      377.11945      18547.091      19371.284     -30.429847    
    502000   317.37678      386.63682      18527.698      19368.434      161.75661    
    503000   318.13195      360.96163      18539.673      19355.815     -417.50872    
    504000   299.07981      359.30727      18559.008      19346.235     -408.02719    
    505000   303.43581      376.65916      18531.335      19342.147     -14.926857    
    506000   304.69308      381.67131      18524.645      19342.268      249.4118     
    507000   305.62874      373.81622      18531.209      19342.315     -116.31276    
    508000   296.11141      366.97404      18554.065      19344.712     -208.10907    
    509000   292.80463      373.98954      18557.186      19350.117     -72.561426    
    510000   292.71627      378.28945      18553.954      19351.058      111.09445    
Loop time of 4.00404 on 48 procs for 10000 steps with 481 atoms

Performance: 10.789 ns/day, 2.224 hours/ns, 2497.479 timesteps/s, 1.201 Matom-step/s
100.0% CPU use with 48 MPI tasks x 1 OpenMP threads

MPI task timing breakdown:
Section |  min time  |  avg time  |  max time  |%varavg| %total
---------------------------------------------------------------
Pair    | 0.0034983  | 0.17331    | 1.0273     |  66.7 |  4.33
Bond    | 0.0010471  | 0.21333    | 1.4673     |  73.6 |  5.33
Neigh   | 0.0060095  | 0.0063483  | 0.006849   |   0.3 |  0.16
Comm    | 1.3568     | 2.9019     | 3.574      |  45.1 | 72.47
Output  | 0.0021782  | 0.0033548  | 0.0045157  |   1.3 |  0.08
Modify  | 0.1582     | 0.58132    | 2.3114     |  91.7 | 14.52
Other   |            | 0.1245     |            |       |  3.11

Nlocal:        10.0208 ave          45 max           0 min
Histogram: 20 12 8 0 0 0 0 2 3 3
Nghost:        1818.35 ave        2348 max        1178 min
Histogram: 8 0 0 0 24 0 0 0 0 16
Neighs:              0 ave           0 max           0 min
Histogram: 48 0 0 0 0 0 0 0 0 0

Total # of neighbors = 0
Ave neighs/atom = 0
Ave special neighs/atom = 15.567568
Neighbor list builds = 12
Dangerous builds = 0
fix             myat1 all ave/time 1000 10 10000 v_zave v_zdes file simulation_data/abpot/${cpt}.dat
fix             myat1 all ave/time 1000 10 10000 v_zave v_zdes file simulation_data/abpot/9.dat
run             50000
Generated 0 of 1 mixed pair_coeff terms from geometric mixing rule
Per MPI rank memory allocation (min/avg/max) = 13.32 | 13.74 | 14.98 Mbytes
   Step          Temp          E_pair         E_mol          TotEng         Press     
    510000   292.71627      378.28945      18553.954      19351.058      111.09445    
    511000   301.86051      374.18636      18551.367      19357.452     -144.48019    
    512000   302.74886      371.21971      18564.831      19369.221     -182.52321    
    513000   326.63886      379.85363      18538.663      19385.867      109.89688    
    514000   329.54994      373.37584      18546.599      19391.492     -33.099551    
    515000   322.61814      369.42745      18552.12       19383.146     -157.11137    
    516000   299.99743      380.52003      18549.728      19359.481      43.333038    
    517000   302.81935      379.87312      18529.496      19342.639      163.0196     
    518000   280.79083      373.60999      18556.55       19331.912     -172.67664    
    519000   303.3231       366.69141      18530.03       19330.713     -304.76092    
    520000   284.62753      380.68509      18545.133      19333.06       118.02014    
    521000   285.88518      372.00105      18554.495      19335.538     -106.11993    
    522000   290.05222      379.27972      18544.354      19338.637      102.52343    
    523000   301.25771      368.82295      18547.644      19347.503     -108.90714    
    524000   297.50304      371.19035      18567.925      19364.779     -182.41101    
    525000   295.58627      382.44762      18575.859      19381.229      72.750474    
    526000   325.8587       378.17225      18550.546      19394.953     -9.7709614    
    527000   319.47763      374.09856      18561.71       19392.913     -221.32147    
    528000   323.43146      368.52809      18541.181      19372.471     -211.27029    
    529000   306.18824      376.15821      18535.537      19349.786     -58.452165    
    530000   296.78086      382.83854      18529.055      19336.525      128.33423    
    531000   297.47132      375.1401       18533.578      19334.336     -110.79095    
    532000   300.89407      372.24945      18532.76       19335.525     -192.77922    
    533000   295.40449      371.42942      18542.812      19336.903     -188.26614    
    534000   305.91753      379.16739      18519.203      19336.074      132.92584    
    535000   292.77132      385.24715      18531.702      19335.843      123.08549    
    536000   291.90792      366.17754      18551.366      19335.202     -245.7749     
    537000   286.76354      372.70035      18555.055      19338.053     -205.55028    
    538000   304.4436       380.962        18534.693      19351.25       191.04132    
    539000   309.14279      377.69768      18545.085      19365.101     -38.255662    
    540000   320.38697      373.24069      18546.025      19377.671      21.365247    
    541000   313.61675      368.21675      18558.367      19375.303     -114.088      
    542000   303.49577      370.97284      18554.023      19359.235     -341.80509    
    543000   306.43994      387.55373      18507.298      19333.303      286.45555    
    544000   283.83996      383.8454       18529.535      19319.496      142.19497    
    545000   289.47776      366.1896       18538.252      19318.623     -305.55169    
    546000   290.41386      369.0917       18539.786      19324.399     -228.68745    
    547000   299.21357      379.73562      18523.067      19330.914      46.735346    
    548000   282.30988      380.59328      18546.993      19331.512     -41.456798    
    549000   291.93562      377.68763      18543.019      19338.405      16.677525    
    550000   299.92633      366.15162      18557.758      19353.04      -306.08195    
    551000   318.18196      370.17074      18549.056      19374.478     -204.05478    
    552000   317.16059      383.00165      18552.052      19388.844      104.51771    
    553000   321.1782       387.05314      18545.589      19392.181      106.18828    
    554000   302.2788       370.85506      18568.626      19371.979     -139.96876    
    555000   287.98219      359.94738      18568.513      19340.502     -544.77475    
    556000   279.43521      375.2028       18554.318      19329.333     -38.138978    
    557000   301.25547      387.18502      18508.486      19326.704      288.5756     
    558000   298.86516      379.54344      18523.015      19330.171      82.747507    
    559000   308.96938      360.5958       18532.06       19334.726     -305.8317     
    560000   304.95075      364.37071      18537.974      19338.665     -181.67049    
Loop time of 19.9793 on 48 procs for 50000 steps with 481 atoms

Performance: 10.811 ns/day, 2.220 hours/ns, 2502.593 timesteps/s, 1.204 Matom-step/s
100.0% CPU use with 48 MPI tasks x 1 OpenMP threads

MPI task timing breakdown:
Section |  min time  |  avg time  |  max time  |%varavg| %total
---------------------------------------------------------------
Pair    | 0.017781   | 0.86197    | 5.1414     | 149.5 |  4.31
Bond    | 0.0052721  | 1.0658     | 7.2316     | 164.8 |  5.33
Neigh   | 0.050053   | 0.053566   | 0.058141   |   0.9 |  0.27
Comm    | 7.0373     | 14.494     | 17.97      | 102.2 | 72.55
Output  | 0.01121    | 0.017206   | 0.02297    |   2.8 |  0.09
Modify  | 0.77031    | 2.861      | 11.359     | 209.9 | 14.32
Other   |            | 0.6258     |            |       |  3.13

Nlocal:        10.0208 ave          46 max           0 min
Histogram: 21 14 4 1 0 0 1 1 4 2
Nghost:        1818.35 ave        2348 max        1177 min
Histogram: 8 0 0 0 24 0 0 0 0 16
Neighs:              0 ave           0 max           0 min
Histogram: 48 0 0 0 0 0 0 0 0 0

Total # of neighbors = 0
Ave neighs/atom = 0
Ave special neighs/atom = 15.567568
Neighbor list builds = 101
Dangerous builds = 0
unfix           myat1
next            cpt
jump            SELF loop
variable        zdes equal  -15+0.60*(${cpt}-1)
variable        zdes equal  -15+0.60*(10-1)
variable        zave equal xcm(H2,z)
fix             mytth2 H2 spring tether ${k1} 2.5 2.5 ${zdes} 0
fix             mytth2 H2 spring tether 0.5 2.5 2.5 ${zdes} 0
fix             mytth2 H2 spring tether 0.5 2.5 2.5 -9.6 0
run             10000
Generated 0 of 1 mixed pair_coeff terms from geometric mixing rule
Per MPI rank memory allocation (min/avg/max) = 13.32 | 13.75 | 14.98 Mbytes
   Step          Temp          E_pair         E_mol          TotEng         Press     
    560000   304.95075      364.37071      18537.974      19338.665     -181.67049    
    561000   298.07864      388.002        18523.451      19337.94       226.61731    
    562000   312.47347      385.44337      18513.955      19346.482      318.03603    
    563000   305.00723      365.7505       18553.306      19355.457     -274.33384    
    564000   305.49458      358.45173      18565.489      19361.039     -523.18652    
    565000   314.88231      374.18871      18541.736      19366.455     -31.629271    
    566000   317.90685      389.07185      18516.004      19359.933      308.83375    
    567000   301.59178      384.2092       18524.961      19340.684      217.65381    
    568000   307.1151       362.1721       18519.163      19320.752     -260.58439    
    569000   299.81849      363.4557       18517.617      19310.049     -222.7289     
    570000   308.03967      382.81525      18480.828      19304.383      163.06852    
Loop time of 4.10092 on 48 procs for 10000 steps with 481 atoms

Performance: 10.534 ns/day, 2.278 hours/ns, 2438.477 timesteps/s, 1.173 Matom-step/s
100.0% CPU use with 48 MPI tasks x 1 OpenMP threads

MPI task timing breakdown:
Section |  min time  |  avg time  |  max time  |%varavg| %total
---------------------------------------------------------------
Pair    | 0.0035719  | 0.17811    | 1.0539     |  68.5 |  4.34
Bond    | 0.0010502  | 0.21946    | 1.4835     |  75.0 |  5.35
Neigh   | 0.0086074  | 0.0091897  | 0.0099357  |   0.4 |  0.22
Comm    | 1.446      | 2.9786     | 3.7272     |  47.1 | 72.63
Output  | 0.0022661  | 0.0034388  | 0.004612   |   1.2 |  0.08
Modify  | 0.15446    | 0.58541    | 2.3536     |  97.0 | 14.28
Other   |            | 0.1267     |            |       |  3.09

Nlocal:        10.0208 ave          42 max           0 min
Histogram: 23 8 7 2 0 0 0 0 2 6
Nghost:        1818.88 ave        2348 max        1181 min
Histogram: 8 0 0 0 24 0 0 0 0 16
Neighs:              0 ave           0 max           0 min
Histogram: 48 0 0 0 0 0 0 0 0 0

Total # of neighbors = 0
Ave neighs/atom = 0
Ave special neighs/atom = 15.567568
Neighbor list builds = 16
Dangerous builds = 0
fix             myat1 all ave/time 1000 10 10000 v_zave v_zdes file simulation_data/abpot/${cpt}.dat
fix             myat1 all ave/time 1000 10 10000 v_zave v_zdes file simulation_data/abpot/10.dat
run             50000
Generated 0 of 1 mixed pair_coeff terms from geometric mixing rule
Per MPI rank memory allocation (min/avg/max) = 13.32 | 13.75 | 14.98 Mbytes
   Step          Temp          E_pair         E_mol          TotEng         Press     
    570000   308.03967      382.81525      18480.828      19304.383      163.06852    
    571000   297.17595      390.68638      18495.117      19311          400.13086    
    572000   312.10125      366.73661      18506.962      19320.249     -191.02593    
    573000   291.73649      362.86379      18551.367      19331.644     -394.16982    
    574000   311.2884       372.51869      18531.115      19349.022     -7.84161      
    575000   312.14282      385.39513      18531.493      19363.499      400.54733    
    576000   309.7267       380.05788      18550.797      19374.008      143.57379    
    577000   316.26283      366.40609      18580.559      19399.471     -355.39729    
    578000   323.05353      369.79872      18587.332      19419.352     -111.556      
    579000   334.76614      385.72739      18554.28       19418.987      45.679136    
    580000   306.30771      381.77223      18571.622      19391.656     -6.4002339    
    581000   309.68445      367.80924      18558.222      19369.124     -174.80732    
    582000   308.32725      371.92453      18541.308      19354.384     -72.067849    
    583000   287.52726      374.52061      18553.822      19339.734      0.19151472   
    584000   300.97905      382.08077      18519.057      19331.775      197.552      
    585000   293.83846      377.77829      18526.309      19324.508     -12.11214     
    586000   292.13631      374.05294      18526.539      19318.577     -121.88121    
    587000   297.6978       374.11772      18514.183      19314.243     -121.71265    
    588000   288.232        381.40532      18519.078      19312.883      95.815157    
    589000   297.01236      380.26088      18513.326      19318.549      2.2257395    
    590000   296.06683      368.20839      18544.781      19336.598     -127.86116    
    591000   320.48417      370.64126      18526.304      19355.491     -206.17312    
    592000   333.17347      372.82867      18511          19360.529      36.096811    
    593000   303.53433      382.68242      18537.723      19354.699      79.200115    
    594000   300.59166      375.27955      18546.982      19352.345     -59.132006    
    595000   299.84831      374.38258      18535.291      19338.693     -93.657862    
    596000   299.43402      366.8615       18518.376      19313.665     -127.87583    
    597000   300.04952      378.52783      18495.569      19303.404      63.229201    
    598000   291.63011      379.22447      18508.192      19304.678      53.679525    
    599000   295.4906       378.51931      18511.032      19312.336      54.548542    
    600000   297.7417       375.80151      18523.077      19324.884     -80.41484     
    601000   296.30398      372.95901      18536.337      19333.245     -42.391455    
    602000   302.48947      374.53762      18537.737      19345.074     -19.88147     
    603000   295.05858      379.97281      18551.134      19353.273      21.635558    
    604000   320.80186      374.14847      18529.551      19362.7       -36.289182    
    605000   305.01377      367.88273      18560.682      19364.975     -227.76827    
    606000   317.52863      374.07179      18533.395      19361.783     -99.556892    
    607000   284.45752      375.53633      18552.861      19335.396     -114.22336    
    608000   295.7209       372.39439      18509.307      19304.815     -57.338426    
    609000   270.79527      376.5026       18536.773      19300.726     -2.4624504    
    610000   296.49331      371.53656      18510.471      19306.227     -4.8889346    
    611000   296.23679      374.57518      18520.399      19318.827     -44.2809      
    612000   298.99363      375.2009       18529.393      19332.391     -119.71546    
    613000   289.6175       377.32722      18550.811      19342.52       49.778376    
    614000   293.25917      376.03528      18554.123      19349.751     -37.769878    
    615000   295.11304      369.6538       18561.384      19353.282     -269.20881    
    616000   319.61876      369.72514      18532.424      19359.456     -161.61431    
    617000   307.30004      376.3955       18541.486      19357.563      143.08919    
    618000   306.00356      383.79656      18520.25       19341.873      243.63298    
    619000   283.46123      365.83635      18543.105      19314.514     -224.65012    
    620000   291.77851      370.36699      18515.15       19302.991     -133.35597    
Loop time of 19.9541 on 48 procs for 50000 steps with 481 atoms

Performance: 10.825 ns/day, 2.217 hours/ns, 2505.751 timesteps/s, 1.205 Matom-step/s
100.0% CPU use with 48 MPI tasks x 1 OpenMP threads

MPI task timing breakdown:
Section |  min time  |  avg time  |  max time  |%varavg| %total
---------------------------------------------------------------
Pair    | 0.017677   | 0.87683    | 5.0266     | 147.3 |  4.39
Bond    | 0.0053683  | 1.0838     | 7.0277     | 162.7 |  5.43
Neigh   | 0.035991   | 0.038306   | 0.041898   |   0.8 |  0.19
Comm    | 7.2807     | 14.39      | 17.877     |  99.4 | 72.12
Output  | 0.011167   | 0.017181   | 0.023002   |   2.9 |  0.09
Modify  | 0.7699     | 2.9176     | 11.081     | 203.5 | 14.62
Other   |            | 0.6304     |            |       |  3.16

Nlocal:        10.0208 ave          54 max           0 min
Histogram: 23 11 6 1 0 1 2 2 0 2
Nghost:        1818.35 ave        2348 max        1173 min
Histogram: 8 0 0 0 24 0 0 0 0 16
Neighs:              0 ave           0 max           0 min
Histogram: 48 0 0 0 0 0 0 0 0 0

Total # of neighbors = 0
Ave neighs/atom = 0
Ave special neighs/atom = 15.567568
Neighbor list builds = 72
Dangerous builds = 0
unfix           myat1
next            cpt
jump            SELF loop
variable        zdes equal  -15+0.60*(${cpt}-1)
variable        zdes equal  -15+0.60*(11-1)
variable        zave equal xcm(H2,z)
fix             mytth2 H2 spring tether ${k1} 2.5 2.5 ${zdes} 0
fix             mytth2 H2 spring tether 0.5 2.5 2.5 ${zdes} 0
fix             mytth2 H2 spring tether 0.5 2.5 2.5 -9 0
run             10000
Generated 0 of 1 mixed pair_coeff terms from geometric mixing rule
Per MPI rank memory allocation (min/avg/max) = 13.32 | 13.75 | 14.98 Mbytes
   Step          Temp          E_pair         E_mol          TotEng         Press     
    620000   291.77851      370.36699      18515.15       19302.991     -133.35597    
    621000   296.08517      374.59695      18502.804      19301.036     -94.796404    
    622000   277.46245      380.13305      18531.057      19308.18       54.75756     
    623000   290.59606      378.0538       18533.056      19326.892      177.66903    
    624000   293.75953      371.28715      18552.143      19343.738     -118.70016    
    625000   312.38234      366.98583      18536.16       19350.099     -121.08775    
    626000   286.53508      377.70303      18560.089      19347.763     -6.3278822    
    627000   307.80851      382.85202      18522.815      19346.076      101.58877    
    628000   306.2491       376.37269      18526.999      19341.55      -44.410059    
    629000   297.31453      368.67796      18539.562      19333.635     -272.50117    
    630000   298.37496      367.01283      18531.959      19325.884     -246.54152    
Loop time of 4.05132 on 48 procs for 10000 steps with 481 atoms

Performance: 10.663 ns/day, 2.251 hours/ns, 2468.329 timesteps/s, 1.187 Matom-step/s
100.0% CPU use with 48 MPI tasks x 1 OpenMP threads

MPI task timing breakdown:
Section |  min time  |  avg time  |  max time  |%varavg| %total
---------------------------------------------------------------
Pair    | 0.0035692  | 0.17557    | 1.1111     |  65.6 |  4.33
Bond    | 0.0010564  | 0.21497    | 1.3973     |  72.6 |  5.31
Neigh   | 0.0071229  | 0.0077892  | 0.0085793  |   0.4 |  0.19
Comm    | 1.5317     | 2.8995     | 3.6343     |  44.2 | 71.57
Output  | 0.00236    | 0.0037011  | 0.0049893  |   1.4 |  0.09
Modify  | 0.15177    | 0.62203    | 2.2185     |  90.1 | 15.35
Other   |            | 0.1278     |            |       |  3.15

Nlocal:        10.0208 ave          45 max           0 min
Histogram: 22 10 7 1 0 0 1 2 2 3
Nghost:        1818.35 ave        2346 max        1178 min
Histogram: 8 0 0 0 24 0 0 0 0 16
Neighs:              0 ave           0 max           0 min
Histogram: 48 0 0 0 0 0 0 0 0 0

Total # of neighbors = 0
Ave neighs/atom = 0
Ave special neighs/atom = 15.567568
Neighbor list builds = 15
Dangerous builds = 0
fix             myat1 all ave/time 1000 10 10000 v_zave v_zdes file simulation_data/abpot/${cpt}.dat
fix             myat1 all ave/time 1000 10 10000 v_zave v_zdes file simulation_data/abpot/11.dat
run             50000
Generated 0 of 1 mixed pair_coeff terms from geometric mixing rule
Per MPI rank memory allocation (min/avg/max) = 13.32 | 13.75 | 14.98 Mbytes
   Step          Temp          E_pair         E_mol          TotEng         Press     
    630000   298.37496      367.01283      18531.959      19325.884     -246.54152    
    631000   300.74315      382.01144      18494.259      19306.57       94.289066    
    632000   277.26175      380.40515      18505.99       19283.098      184.877      
    633000   277.53476      366.645        18510.854      19274.592     -258.91001    
    634000   271.55598      360.75227      18531.762      19281.053     -346.76902    
    635000   283.90101      379.97533      18507.089      19293.267      92.664891    
    636000   291.69728      382.21259      18506.879      19306.449      156.74645    
    637000   285.80037      374.8336       18530.422      19314.175     -85.919096    
    638000   305.09347      362.51908      18528.12       19327.163     -274.36497    
    639000   299.54011      375.53929      18534.991      19339.109     -47.818951    
    640000   318.65257      380.17715      18512.042      19348.144      42.726152    
    641000   326.34674      378.76931      18508.778      19354.481      203.75897    
    642000   305.58152      365.39531      18551.361      19353.979     -249.34535    
    643000   290.06325      367.74218      18566.217      19348.978     -251.37195    
    644000   291.04652      382.41033      18540.672      19339.508      222.45387    
    645000   290.87024      380.97221      18522.604      19319.75       73.713325    
    646000   284.76122      370.99815      18523.179      19301.61      -52.354463    
    647000   279.00704      364.21031      18530.767      19294.177     -243.361      
    648000   287.24325      372.02319      18516.064      19299.072     -11.476405    
    649000   285.04512      382.10268      18525.464      19315.406      257.47243    
    650000   301.81098      377.44283      18523.811      19333.082      84.419133    
    651000   299.01591      370.02406      18544.957      19342.81      -152.05618    
    652000   302.20669      359.05096      18553.29       19344.735     -301.87576    
    653000   299.43426      383.22705      18531.153      19342.807      173.33933    
    654000   300.02599      381.44758      18529.697      19340.419      151.9987     
    655000   296.86453      379.18489      18538.928      19342.864      125.6261     
    656000   298.10139      360.5713       18553.185      19340.277     -412.93067    
    657000   304.10952      369.77898      18528.312      19333.207     -61.8374      
    658000   293.99746      385.98382      18505.476      19312.108      245.6944     
    659000   280.14083      374.91059      18517.597      19293.33      -94.862047    
    660000   286.40067      366.84889      18507.377      19284.005     -216.79606    
    661000   284.30654      363.85343      18521.118      19291.754     -189.7545     
    662000   300.38568      376.91334      18503.597      19310.298      63.071361    
    663000   288.497        379.11001      18533.392      19325.28       283.78202    
    664000   301.18251      372.13101      18531.558      19334.618     -89.260618    
    665000   268.99907      368.91954      18583.249      19337.049     -239.64468    
    666000   299.41672      369.74351      18541.324      19339.469     -111.81244    
    667000   300.0479       378.70686      18533.765      19341.777      64.934526    
    668000   295.11385      378.64417      18543.99       19344.88       111.92869    
    669000   315.38017      366.87433      18534.403      19352.52      -138.41226    
    670000   325.12814      369.0339       18529.219      19363.443     -104.95042    
    671000   307.59953      368.14818      18553.061      19361.319     -179.51091    
    672000   298.93676      379.30472      18546.981      19354.001      98.19759     
    673000   291.89112      374.65372      18549.151      19341.439      68.275263    
    674000   306.67894      363.53554      18524.22       19326.548     -327.86308    
    675000   291.09959      372.34486      18528.079      19316.926     -99.14971     
    676000   280.23713      377.2986       18529.851      19308.11      -79.550647    
    677000   299.27341      380.28787      18496.646      19305.13       170.34508    
    678000   293.7607       374.6242       18520.166      19315.1       -22.740231    
    679000   294.31564      365.33925      18550.552      19336.995     -210.6902     
    680000   299.4551       383.93599      18547.835      19360.228      57.330478    
Loop time of 19.623 on 48 procs for 50000 steps with 481 atoms

Performance: 11.007 ns/day, 2.180 hours/ns, 2548.029 timesteps/s, 1.226 Matom-step/s
100.0% CPU use with 48 MPI tasks x 1 OpenMP threads

MPI task timing breakdown:
Section |  min time  |  avg time  |  max time  |%varavg| %total
---------------------------------------------------------------
Pair    | 0.017626   | 0.86419    | 4.8602     | 144.8 |  4.40
Bond    | 0.0052876  | 1.0691     | 7.316      | 163.1 |  5.45
Neigh   | 0.031332   | 0.034536   | 0.038145   |   0.9 |  0.18
Comm    | 6.7815     | 14.177     | 17.561     |  97.6 | 72.25
Output  | 0.011219   | 0.017216   | 0.023004   |   2.8 |  0.09
Modify  | 0.7422     | 2.8284     | 10.864     | 197.9 | 14.41
Other   |            | 0.6321     |            |       |  3.22

Nlocal:        10.0208 ave          54 max           0 min
Histogram: 22 14 4 0 1 1 2 2 1 1
Nghost:        1818.35 ave        2346 max        1169 min
Histogram: 8 0 0 0 24 0 0 0 0 16
Neighs:              0 ave           0 max           0 min
Histogram: 48 0 0 0 0 0 0 0 0 0

Total # of neighbors = 0
Ave neighs/atom = 0
Ave special neighs/atom = 15.567568
Neighbor list builds = 69
Dangerous builds = 0
unfix           myat1
next            cpt
jump            SELF loop
variable        zdes equal  -15+0.60*(${cpt}-1)
variable        zdes equal  -15+0.60*(12-1)
variable        zave equal xcm(H2,z)
fix             mytth2 H2 spring tether ${k1} 2.5 2.5 ${zdes} 0
fix             mytth2 H2 spring tether 0.5 2.5 2.5 ${zdes} 0
fix             mytth2 H2 spring tether 0.5 2.5 2.5 -8.4 0
run             10000
Generated 0 of 1 mixed pair_coeff terms from geometric mixing rule
Per MPI rank memory allocation (min/avg/max) = 13.32 | 13.75 | 14.98 Mbytes
   Step          Temp          E_pair         E_mol          TotEng         Press     
    680000   299.4551       383.93599      18547.835      19360.228      57.330478    
    681000   300.83545      375.53314      18563.232      19369.197     -115.75394    
    682000   299.80739      381.06799      18557.417      19367.446      66.224457    
    683000   302.82782      368.51339      18554.258      19356.054     -356.13415    
    684000   296.18401      370.07807      18549.533      19343.388     -83.497227    
    685000   291.59861      381.89983      18531.256      19330.372      132.7109     
    686000   291.94349      380.97427      18524.451      19323.135     -94.979742    
    687000   303.92749      373.4107       18511.354      19319.621     -86.41009     
    688000   300.30156      366.71987      18522.744      19319.132     -166.11779    
    689000   288.60894      373.39237      18532.957      19319.288     -177.37471    
    690000   303.43273      384.14889      18509.936      19328.233      316.52117    
Loop time of 3.95166 on 48 procs for 10000 steps with 481 atoms

Performance: 10.932 ns/day, 2.195 hours/ns, 2530.585 timesteps/s, 1.217 Matom-step/s
100.0% CPU use with 48 MPI tasks x 1 OpenMP threads

MPI task timing breakdown:
Section |  min time  |  avg time  |  max time  |%varavg| %total
---------------------------------------------------------------
Pair    | 0.0035393  | 0.17197    | 0.9673     |  65.2 |  4.35
Bond    | 0.0010501  | 0.21457    | 1.6154     |  74.8 |  5.43
Neigh   | 0.0048164  | 0.005194   | 0.0056314  |   0.3 |  0.13
Comm    | 1.2284     | 2.8597     | 3.5853     |  44.5 | 72.37
Output  | 0.0023065  | 0.0038337  | 0.0052455  |   1.6 |  0.10
Modify  | 0.14836    | 0.56825    | 2.2216     |  90.4 | 14.38
Other   |            | 0.1281     |            |       |  3.24

Nlocal:        10.0208 ave          53 max           0 min
Histogram: 24 12 4 0 1 2 1 0 1 3
Nghost:        1818.35 ave        2348 max        1172 min
Histogram: 8 0 0 0 24 0 0 0 0 16
Neighs:              0 ave           0 max           0 min
Histogram: 48 0 0 0 0 0 0 0 0 0

Total # of neighbors = 0
Ave neighs/atom = 0
Ave special neighs/atom = 15.567568
Neighbor list builds = 10
Dangerous builds = 0
fix             myat1 all ave/time 1000 10 10000 v_zave v_zdes file simulation_data/abpot/${cpt}.dat
fix             myat1 all ave/time 1000 10 10000 v_zave v_zdes file simulation_data/abpot/12.dat
run             50000
Generated 0 of 1 mixed pair_coeff terms from geometric mixing rule
Per MPI rank memory allocation (min/avg/max) = 13.32 | 13.75 | 14.98 Mbytes
   Step          Temp          E_pair         E_mol          TotEng         Press     
    690000   303.43273      384.14889      18509.936      19328.233      316.52117    
    691000   315.42342      371.69431      18528.748      19351.747     -194.3614     
    692000   307.41258      364.39575      18580.073      19384.311     -287.64132    
    693000   321.89743      369.10365      18558.909      19388.58      -120.77452    
    694000   313.0621       379.08435      18553.403      19380.413      26.676022    
    695000   298.38577      384.72958      18552.957      19364.614      115.073      
    696000   312.60359      374.11917      18528.312      19349.701     -66.178097    
    697000   294.01819      361.02915      18553.653      19335.36      -338.7323     
    698000   291.83404      376.06282      18533.71       19327.326      188.56654    
    699000   293.94225      381.73159      18518.793      19321.094      167.93346    
    700000   287.20019      372.6496       18538.487      19322.059     -56.132818    
    701000   314.01409      367.53447      18515.549      19332.371     -184.91102    
    702000   294.98345      374.56741      18546.625      19343.252     -8.9746498    
    703000   320.53501      376.38125      18530.288      19365.287      132.64914    
    704000   305.1094       377.69936      18564.578      19378.824      46.0784      
    705000   310.14118      369.76261      18568.118      19381.627     -185.256      
    706000   305.84486      371.05581      18571.301      19379.956     -82.829267    
    707000   305.52017      382.58042      18547.945      19367.66       158.97338    
    708000   306.73614      372.79607      18532.242      19343.913     -25.01362     
    709000   297.59368      368.168        18538.317      19332.279     -198.95048    
    710000   314.60433      372.6297       18507.827      19330.589     -94.940786    
    711000   299.23903      376.24416      18524.838      19329.23       3.0901289    
    712000   315.31794      383.65068      18496.774      19331.578      192.78195    
    713000   308.35094      370.404        18524.971      19336.56      -205.48378    
    714000   308.77869      370.48815      18536.97       19349.255     -24.564696    
    715000   314.49865      375.22385      18533.48       19358.685      45.48274     
    716000   302.63303      375.84323      18552.949      19361.796      12.695687    
    717000   319.4828       380.13764      18526.384      19363.634      105.85655    
    718000   305.35991      369.3484       18554.075      19360.328     -199.74776    
    719000   304.13205      375.24186      18537.911      19348.302      88.793934    
    720000   305.95616      378.39153      18512.87       19329.02       24.794521    
    721000   290.02757      375.98586      18524.371      19315.325     -134.83495    
    722000   311.40903      373.35193      18494.259      19313.171     -32.39467     
    723000   298.00451      380.78014      18507.457      19314.619      86.255539    
    724000   300.04654      371.00519      18519.891      19320.2       -152.1266     
    725000   305.19685      374.6144       18522.38       19333.667     -61.391577    
    726000   293.9          384.23815      18544.437      19349.184     -1.3449426    
    727000   298.59339      376.14348      18557.923      19361.291     -57.12775     
    728000   300.16661      377.13707      18556.761      19363.373     -65.345147    
    729000   296.76194      375.21893      18560.197      19360.02      -183.56676    
    730000   302.99059      376.55331      18539.595      19349.664      0.80408455   
    731000   308.9886       381.13235      18517.546      19340.776     -9.9081611    
    732000   279.55351      381.05718      18555.142      19336.181      128.64482    
    733000   281.88738      371.64756      18557.616      19332.585     -104.34738    
    734000   284.08789      369.93456      18554.416      19330.821     -194.92164    
    735000   294.24453      372.63806      18534.862      19328.501     -74.294247    
    736000   303.26777      386.34214      18510.28       19330.535      209.2236     
    737000   307.98841      373.15189      18522.436      19336.254     -9.0243775    
    738000   292.98764      367.08529      18563.364      19349.653     -219.8692     
    739000   306.5964       370.8726       18554.778      19364.326     -85.689678    
    740000   300.85914      379.90552      18564.986      19375.357      6.8648363    
Loop time of 19.2975 on 48 procs for 50000 steps with 481 atoms

Performance: 11.193 ns/day, 2.144 hours/ns, 2591.009 timesteps/s, 1.246 Matom-step/s
100.0% CPU use with 48 MPI tasks x 1 OpenMP threads

MPI task timing breakdown:
Section |  min time  |  avg time  |  max time  |%varavg| %total
---------------------------------------------------------------
Pair    | 0.018935   | 0.874      | 4.724      | 143.4 |  4.53
Bond    | 0.0056702  | 1.0836     | 7.5157     | 164.2 |  5.62
Neigh   | 0.036698   | 0.040814   | 0.044907   |   1.0 |  0.21
Comm    | 6.6002     | 13.969     | 17.357     |  98.8 | 72.39
Output  | 0.010939   | 0.017005   | 0.022855   |   2.9 |  0.09
Modify  | 0.74915    | 2.678      | 10.388     | 200.4 | 13.88
Other   |            | 0.635      |            |       |  3.29

Nlocal:        10.0208 ave          54 max           0 min
Histogram: 26 7 7 0 1 2 0 2 2 1
Nghost:        1818.35 ave        2347 max        1169 min
Histogram: 8 0 0 0 24 0 0 0 0 16
Neighs:              0 ave           0 max           0 min
Histogram: 48 0 0 0 0 0 0 0 0 0

Total # of neighbors = 0
Ave neighs/atom = 0
Ave special neighs/atom = 15.567568
Neighbor list builds = 81
Dangerous builds = 0
unfix           myat1
next            cpt
jump            SELF loop
variable        zdes equal  -15+0.60*(${cpt}-1)
variable        zdes equal  -15+0.60*(13-1)
variable        zave equal xcm(H2,z)
fix             mytth2 H2 spring tether ${k1} 2.5 2.5 ${zdes} 0
fix             mytth2 H2 spring tether 0.5 2.5 2.5 ${zdes} 0
fix             mytth2 H2 spring tether 0.5 2.5 2.5 -7.8 0
run             10000
Generated 0 of 1 mixed pair_coeff terms from geometric mixing rule
Per MPI rank memory allocation (min/avg/max) = 13.32 | 13.76 | 14.98 Mbytes
   Step          Temp          E_pair         E_mol          TotEng         Press     
    740000   300.85914      379.90552      18564.986      19375.357      6.8648363    
    741000   304.53924      386.5761       18555.285      19377.593      268.58356    
    742000   299.70274      372.30509      18577.455      19378.572     -86.584038    
    743000   305.51728      369.14174      18560.505      19366.777     -9.7984078    
    744000   297.80094      365.11635      18550.629      19341.835     -272.23436    
    745000   287.88094      382.49496      18528.148      19322.54       90.101715    
    746000   289.04624      382.93805      18522.665      19319.167      184.31992    
    747000   284.81475      364.14058      18551.49       19323.14      -316.99751    
    748000   285.17222      370.18485      18555.725      19333.931     -115.89336    
    749000   304.69621      377.67233      18532.678      19346.306      101.18752    
    750000   305.8161       383.45163      18532.826      19353.836      92.556193    
Loop time of 3.91788 on 48 procs for 10000 steps with 481 atoms

Performance: 11.026 ns/day, 2.177 hours/ns, 2552.398 timesteps/s, 1.228 Matom-step/s
100.0% CPU use with 48 MPI tasks x 1 OpenMP threads

MPI task timing breakdown:
Section |  min time  |  avg time  |  max time  |%varavg| %total
---------------------------------------------------------------
Pair    | 0.0035205  | 0.17823    | 0.9958     |  66.4 |  4.55
Bond    | 0.001038   | 0.21797    | 1.3902     |  73.3 |  5.56
Neigh   | 0.0083241  | 0.0093222  | 0.010295   |   0.5 |  0.24
Comm    | 1.58       | 2.8565     | 3.5576     |  46.1 | 72.91
Output  | 0.0021709  | 0.003371   | 0.0045773  |   1.3 |  0.09
Modify  | 0.13874    | 0.53158    | 2.1517     |  96.0 | 13.57
Other   |            | 0.1209     |            |       |  3.09

Nlocal:        10.0208 ave          49 max           0 min
Histogram: 23 10 7 0 0 1 1 2 2 2
Nghost:        1818.35 ave        2348 max        1175 min
Histogram: 8 0 0 0 24 0 0 0 0 16
Neighs:              0 ave           0 max           0 min
Histogram: 48 0 0 0 0 0 0 0 0 0

Total # of neighbors = 0
Ave neighs/atom = 0
Ave special neighs/atom = 15.567568
Neighbor list builds = 18
Dangerous builds = 0
fix             myat1 all ave/time 1000 10 10000 v_zave v_zdes file simulation_data/abpot/${cpt}.dat
fix             myat1 all ave/time 1000 10 10000 v_zave v_zdes file simulation_data/abpot/13.dat
run             50000
Generated 0 of 1 mixed pair_coeff terms from geometric mixing rule
Per MPI rank memory allocation (min/avg/max) = 13.32 | 13.76 | 14.98 Mbytes
   Step          Temp          E_pair         E_mol          TotEng         Press     
    750000   305.8161       383.45163      18532.826      19353.836      92.556193    
    751000   296.917        379.4799       18554.852      19359.158      56.356228    
    752000   309.65001      369.62511      18554.393      19367.062     -100.60823    
    753000   315.04718      372.97088      18550.479      19374.216     -21.144533    
    754000   302.73007      375.59393      18564.424      19373.161     -59.48455     
    755000   302.45814      380.89125      18537.618      19351.263      95.048612    
    756000   296.76227      373.97561      18528.552      19327.132     -135.26284    
    757000   290.39371      373.46248      18526.296      19315.25      -20.559958    
    758000   294.87497      370.82898      18518.964      19311.697     -132.65007    
    759000   301.13665      380.65414      18506.519      19318.036      32.575581    
    760000   290.24568      374.26972      18540.818      19330.368      29.004181    
    761000   302.44389      374.04205      18539.539      19346.315     -44.811802    
    762000   316.12178      367.67544      18538.292      19358.271     -144.83358    
    763000   305.92028      375.64593      18551.539      19364.892     -12.343162    
    764000   296.73494      385.95733      18554.45       19364.972      143.18695    
    765000   315.71661      371.32645      18535.669      19358.719     -108.49509    
    766000   305.0445       373.25681      18536.914      19346.625     -68.414971    
    767000   304.8931       375.14484      18509.116      19320.498     -39.439422    
    768000   286.29136      374.97417      18519.837      19304.434      38.532036    
    769000   291.06461      378.29808      18508.648      19303.398      11.152136    
    770000   283.47508      369.05807      18534.497      19309.148     -147.07052    
    771000   299.73573      374.01154      18517.829      19320.7       -116.64264    
    772000   288.78185      372.57894      18549.344      19335.108     -129.51315    
    773000   298.39517      380.04443      18540.677      19347.662     -6.7202311    
    774000   315.29842      374.71189      18530.532      19356.369     -74.454836    
    775000   312.86379      375.83062      18532.896      19356.369     -65.030006    
    776000   318.71521      370.93049      18527.265      19354.21      -81.98086     
    777000   310.56708      376.0796       18522.557      19342.993      26.626718    
    778000   294.9667       375.91661      18529.22       19327.172      153.92745    
    779000   286.11529      372.29558      18523.073      19304.739     -206.99044    
    780000   281.40326      368.46759      18520.185      19291.281     -175.29336    
    781000   287.77514      378.47175      18499.315      19289.533      101.30544    
    782000   291.89869      374.77234      18502.333      19294.75      -66.235069    
    783000   283.32234      370.93069      18530.917      19307.222     -7.6782061    
    784000   298.32839      381.53243      18506.911      19315.288      106.21777    
    785000   299.41787      368.05887      18528.231      19324.694     -287.1139     
    786000   304.80975      384.69358      18514.619      19335.431      268.80777    
    787000   292.93995      374.63645      18549.026      19342.797     -69.276899    
    788000   318.48457      372.54709      18517.888      19346.12      -122.92745    
    789000   308.80585      370.4411       18534.1        19346.377     -203.46259    
    790000   313.89123      376.86139      18517.065      19343.038      7.6566887    
    791000   309.54328      382.18962      18516.872      19341.953      175.59054    
    792000   292.01096      377.66686      18538.637      19334.109     -27.519531    
    793000   269.90147      372.03242      18563.424      19321.628     -208.0393     
    794000   289.55492      369.01951      18523.041      19306.352     -209.94495    
    795000   279.09508      381.41278      18517.659      19298.398      156.6829     
    796000   285.17953      377.26687      18517.035      19302.333     -39.28188     
    797000   284.78716      367.70394      18545.621      19320.796     -163.20134    
    798000   302.15864      372.00372      18537.318      19341.647     -88.069467    
    799000   305.8479       373.97008      18541.137      19352.711     -79.461445    
    800000   298.1157       385.72952      18543.557      19355.827      246.0302     
Loop time of 19.3781 on 48 procs for 50000 steps with 481 atoms

Performance: 11.147 ns/day, 2.153 hours/ns, 2580.228 timesteps/s, 1.241 Matom-step/s
100.0% CPU use with 48 MPI tasks x 1 OpenMP threads

MPI task timing breakdown:
Section |  min time  |  avg time  |  max time  |%varavg| %total
---------------------------------------------------------------
Pair    | 0.01767    | 0.8728     | 4.8391     | 144.4 |  4.50
Bond    | 0.0052801  | 1.0849     | 7.4328     | 163.7 |  5.60
Neigh   | 0.03335    | 0.037435   | 0.041446   |   1.0 |  0.19
Comm    | 6.5789     | 14.052     | 17.442     |  98.6 | 72.51
Output  | 0.010983   | 0.016908   | 0.022739   |   2.9 |  0.09
Modify  | 0.74455    | 2.6918     | 10.319     | 199.8 | 13.89
Other   |            | 0.6223     |            |       |  3.21

Nlocal:        10.0208 ave          48 max           0 min
Histogram: 21 12 7 0 0 0 3 1 2 2
Nghost:        1818.35 ave        2347 max        1175 min
Histogram: 8 0 0 0 24 0 0 0 0 16
Neighs:              0 ave           0 max           0 min
Histogram: 48 0 0 0 0 0 0 0 0 0

Total # of neighbors = 0
Ave neighs/atom = 0
Ave special neighs/atom = 15.567568
Neighbor list builds = 74
Dangerous builds = 0
unfix           myat1
next            cpt
jump            SELF loop
variable        zdes equal  -15+0.60*(${cpt}-1)
variable        zdes equal  -15+0.60*(14-1)
variable        zave equal xcm(H2,z)
fix             mytth2 H2 spring tether ${k1} 2.5 2.5 ${zdes} 0
fix             mytth2 H2 spring tether 0.5 2.5 2.5 ${zdes} 0
fix             mytth2 H2 spring tether 0.5 2.5 2.5 -7.2 0
run             10000
Generated 0 of 1 mixed pair_coeff terms from geometric mixing rule
Per MPI rank memory allocation (min/avg/max) = 13.32 | 13.76 | 14.98 Mbytes
   Step          Temp          E_pair         E_mol          TotEng         Press     
    800000   298.1157       385.72952      18543.557      19355.827      246.0302     
    801000   296.44533      369.63539      18559.427      19353.213     -178.93434    
    802000   315.53758      377.62035      18520.128      19349.216     -24.889777    
    803000   300.07011      367.39019      18540.516      19337.244     -134.03888    
    804000   283.76627      379.13327      18539.104      19324.247      46.799092    
    805000   279.81152      376.63823      18542.391      19319.38      -47.532784    
    806000   286.16164      370.32256      18537.196      19316.956     -89.271014    
    807000   286.00097      370.59645      18530.535      19310.338     -181.95333    
    808000   289.63843      372.8333       18505.991      19293.236      38.698627    
    809000   289.82206      375.11129      18489.276      19279.061     -27.683966    
    810000   284.4108       376.81064      18498.979      19282.721      49.274653    
Loop time of 3.85798 on 48 procs for 10000 steps with 481 atoms

Performance: 11.198 ns/day, 2.143 hours/ns, 2592.032 timesteps/s, 1.247 Matom-step/s
100.0% CPU use with 48 MPI tasks x 1 OpenMP threads

MPI task timing breakdown:
Section |  min time  |  avg time  |  max time  |%varavg| %total
---------------------------------------------------------------
Pair    | 0.0035822  | 0.1746     | 1.0964     |  64.9 |  4.53
Bond    | 0.0010535  | 0.21632    | 1.4525     |  72.7 |  5.61
Neigh   | 0.005801   | 0.0065977  | 0.0072524  |   0.4 |  0.17
Comm    | 1.3031     | 2.7845     | 3.4667     |  43.6 | 72.17
Output  | 0.0021422  | 0.0033152  | 0.0045076  |   1.3 |  0.09
Modify  | 0.14526    | 0.54961    | 2.0369     |  87.5 | 14.25
Other   |            | 0.1231     |            |       |  3.19

Nlocal:        10.0208 ave          43 max           0 min
Histogram: 22 9 7 2 0 0 0 0 5 3
Nghost:        1818.35 ave        2348 max        1180 min
Histogram: 8 0 0 0 24 0 0 0 0 16
Neighs:              0 ave           0 max           0 min
Histogram: 48 0 0 0 0 0 0 0 0 0

Total # of neighbors = 0
Ave neighs/atom = 0
Ave special neighs/atom = 15.567568
Neighbor list builds = 13
Dangerous builds = 0
fix             myat1 all ave/time 1000 10 10000 v_zave v_zdes file simulation_data/abpot/${cpt}.dat
fix             myat1 all ave/time 1000 10 10000 v_zave v_zdes file simulation_data/abpot/14.dat
run             50000
Generated 0 of 1 mixed pair_coeff terms from geometric mixing rule
Per MPI rank memory allocation (min/avg/max) = 13.32 | 13.76 | 14.98 Mbytes
   Step          Temp          E_pair         E_mol          TotEng         Press     
    810000   284.4108       376.81064      18498.979      19282.721      49.274653    
    811000   281.89231      366.65344      18533.184      19303.166     -240.2198     
    812000   288.77101      375.06037      18535.828      19324.059      10.052804    
    813000   314.48782      375.69042      18510.835      19336.491      96.911191    
    814000   298.74749      370.53073      18541.4        19339.375     -187.99043    
    815000   303.88114      378.35405      18528.997      19342.141      114.05047    
    816000   310.91926      375.48198      18528.233      19348.575     -80.969898    
    817000   306.92912      375.00385      18541.035      19355.189      12.20072     
    818000   307.31981      371.77766      18549.997      19361.485     -276.47258    
    819000   286.34702      374.41736      18577.03       19361.149     -96.041692    
    820000   294.27458      375.4332       18550.297      19346.775     -126.74692    
    821000   288.0408       376.27516      18540.045      19328.446      53.10859     
    822000   294.36042      374.60601      18523.604      19319.378     -64.396711    
    823000   291.03103      366.37243      18527.34       19310.116     -215.18912    
    824000   288.52869      372.49443      18518.993      19304.311     -24.205579    
    825000   286.07594      375.09221      18520.769      19305.175     -79.312649    
    826000   286.91586      376.77227      18535.78       19323.068     -19.982676    
    827000   304.23993      380.95016      18537.092      19353.345      211.47732    
    828000   306.24985      366.11576      18558.677      19362.971     -254.38532    
    829000   297.52892      373.18747      18561.025      19359.914     -118.9316     
    830000   317.95883      380.73693      18519.042      19354.711      101.43075    
    831000   309.12866      387.69833      18515.07       19345.067      241.63248    
    832000   297.64182      372.45335      18538.308      19336.624     -137.63197    
    833000   305.19317      368.36101      18521.612      19326.64      -272.05519    
    834000   293.48178      379.39936      18517.24       19316.55       26.923783    
    835000   275.45021      382.62683      18533.623      19310.361      94.884082    
    836000   292.29978      374.79867      18519.783      19312.801     -58.843654    
    837000   291.19387      363.64386      18536.409      19316.689     -323.07404    
    838000   292.22958      374.61943      18532.886      19325.625     -128.56975    
    839000   286.39599      378.90655      18538.112      19326.791      18.099219    
    840000   283.62528      375.32559      18544.646      19325.779     -80.207586    
    841000   290.44373      373.63791      18541.665      19330.867     -106.12845    
    842000   302.4242       375.91929      18530.736      19339.361      41.464768    
    843000   298.18787      377.90091      18544.4        19348.945      39.234616    
    844000   311.19223      374.04228      18542.627      19361.92      -90.851188    
    845000   312.13692      381.39504      18542.959      19370.956      107.6763     
    846000   307.16584      376.41875      18562.514      19378.423      83.950304    
    847000   308.68306      378.61833      18556.977      19377.256     -101.86153    
    848000   317.68051      375.34528      18533.954      19363.833      30.922056    
    849000   304.45133      377.7796       18526.666      19340.051      64.426464    
    850000   292.04099      371.91274      18534.368      19324.13      -117.25889    
    851000   296.19819      377.53463      18516.077      19317.409      84.087878    
    852000   301.20325      371.49644      18511.507      19313.962     -101.85402    
    853000   287.12513      371.43744      18531.414      19313.667     -140.14322    
    854000   303.85934      371.35873      18510.537      19316.654     -176.38608    
    855000   307.99563      380.28752      18504.944      19325.908      112.76679    
    856000   302.43251      377.02272      18536.38       19346.119     -69.513098    
    857000   303.28434      373.57983      18557.498      19365.014     -132.32194    
    858000   312.36472      375.1311       18553.459      19375.518     -132.20861    
    859000   320.31931      370.30692      18539.513      19368.129     -258.50384    
    860000   310.68392      384.25625      18524.942      19353.721      165.03256    
Loop time of 19.3917 on 48 procs for 50000 steps with 481 atoms

Performance: 11.139 ns/day, 2.155 hours/ns, 2578.423 timesteps/s, 1.240 Matom-step/s
100.0% CPU use with 48 MPI tasks x 1 OpenMP threads

MPI task timing breakdown:
Section |  min time  |  avg time  |  max time  |%varavg| %total
---------------------------------------------------------------
Pair    | 0.017715   | 0.87379    | 5.4047     | 144.6 |  4.51
Bond    | 0.00533    | 1.0808     | 6.8156     | 161.0 |  5.57
Neigh   | 0.025022   | 0.028047   | 0.030917   |   0.8 |  0.14
Comm    | 7.0515     | 14.073     | 17.499     |  97.3 | 72.57
Output  | 0.011795   | 0.017708   | 0.023231   |   2.7 |  0.09
Modify  | 0.7327     | 2.7064     | 10.517     | 198.3 | 13.96
Other   |            | 0.6116     |            |       |  3.15

Nlocal:        10.0208 ave          47 max           0 min
Histogram: 23 11 6 0 0 0 1 2 2 3
Nghost:        1818.35 ave        2348 max        1176 min
Histogram: 8 0 0 0 24 0 0 0 0 16
Neighs:              0 ave           0 max           0 min
Histogram: 48 0 0 0 0 0 0 0 0 0

Total # of neighbors = 0
Ave neighs/atom = 0
Ave special neighs/atom = 15.567568
Neighbor list builds = 55
Dangerous builds = 0
unfix           myat1
next            cpt
jump            SELF loop
variable        zdes equal  -15+0.60*(${cpt}-1)
variable        zdes equal  -15+0.60*(15-1)
variable        zave equal xcm(H2,z)
fix             mytth2 H2 spring tether ${k1} 2.5 2.5 ${zdes} 0
fix             mytth2 H2 spring tether 0.5 2.5 2.5 ${zdes} 0
fix             mytth2 H2 spring tether 0.5 2.5 2.5 -6.6 0
run             10000
Generated 0 of 1 mixed pair_coeff terms from geometric mixing rule
Per MPI rank memory allocation (min/avg/max) = 13.32 | 13.76 | 14.98 Mbytes
   Step          Temp          E_pair         E_mol          TotEng         Press     
    860000   310.68392      384.25625      18524.942      19353.721      165.03256    
    861000   309.5424       380.92878      18517.379      19341.197      82.538167    
    862000   306.63675      368.52807      18528.936      19336.197     -203.60703    
    863000   295.1806       374.31509      18539.221      19335.877     -49.856329    
    864000   297.3406       370.81808      18538.907      19335.156     -94.026652    
    865000   295.07325      376.62104      18532.661      19331.47      -185.43089    
    866000   298.05188      382.47108      18518.357      19327.277      101.09688    
    867000   301.31919      367.62491      18528.702      19327.452     -133.49983    
    868000   294.68335      368.8513       18532.878      19323.359     -205.51093    
    869000   295.56347      377.08612      18518.435      19318.41      -49.354749    
    870000   287.02738      388.06924      18514.751      19313.496      251.86127    
Loop time of 3.83345 on 48 procs for 10000 steps with 481 atoms

Performance: 11.269 ns/day, 2.130 hours/ns, 2608.617 timesteps/s, 1.255 Matom-step/s
100.0% CPU use with 48 MPI tasks x 1 OpenMP threads

MPI task timing breakdown:
Section |  min time  |  avg time  |  max time  |%varavg| %total
---------------------------------------------------------------
Pair    | 0.003659   | 0.17497    | 1.0312     |  64.4 |  4.56
Bond    | 0.0010501  | 0.21668    | 1.3836     |  72.2 |  5.65
Neigh   | 0.0039158  | 0.0044201  | 0.0049091  |   0.3 |  0.12
Comm    | 1.406      | 2.7684     | 3.4398     |  42.8 | 72.22
Output  | 0.0021491  | 0.0033224  | 0.0044949  |   1.3 |  0.09
Modify  | 0.14511    | 0.54304    | 2.0758     |  85.7 | 14.17
Other   |            | 0.1227     |            |       |  3.20

Nlocal:        10.0208 ave          45 max           0 min
Histogram: 24 8 8 0 0 0 0 2 3 3
Nghost:        1818.35 ave        2348 max        1179 min
Histogram: 8 0 0 0 24 0 0 0 0 16
Neighs:              0 ave           0 max           0 min
Histogram: 48 0 0 0 0 0 0 0 0 0

Total # of neighbors = 0
Ave neighs/atom = 0
Ave special neighs/atom = 15.567568
Neighbor list builds = 9
Dangerous builds = 0
fix             myat1 all ave/time 1000 10 10000 v_zave v_zdes file simulation_data/abpot/${cpt}.dat
fix             myat1 all ave/time 1000 10 10000 v_zave v_zdes file simulation_data/abpot/15.dat
run             50000
Generated 0 of 1 mixed pair_coeff terms from geometric mixing rule
Per MPI rank memory allocation (min/avg/max) = 13.32 | 13.76 | 14.98 Mbytes
   Step          Temp          E_pair         E_mol          TotEng         Press     
    870000   287.02738      388.06924      18514.751      19313.496      251.86127    
    871000   305.9345       374.38435      18501.304      19313.416      9.2744626    
    872000   295.93054      375.8729       18517.618      19316.905     -169.67573    
    873000   301.89431      375.13019      18517.483      19324.56      -40.783727    
    874000   311.21113      381.48875      18509.221      19335.987      39.339149    
    875000   306.96959      379.35657      18528.893      19347.459      50.460551    
    876000   322.80915      370.88147      18527.188      19359.941     -211.25319    
    877000   316.31344      373.08867      18542.439      19368.105     -129.44906    
    878000   308.18955      382.68753      18537.757      19361.398      122.49707    
    879000   307.3872       377.89289      18525.191      19342.89       11.199152    
    880000   288.95415      373.53451      18527.404      19314.371     -163.49103    
    881000   278.99412      372.80451      18530.315      19302.302     -259.42978    
    882000   277.36973      381.808        18523.466      19302.131      25.980177    
    883000   290.18056      381.93594      18512.687      19309.811      106.05799    
    884000   304.56387      373.15823      18513.836      19322.76      -83.261416    
    885000   296.8817       370.88344      18541.253      19336.912     -176.47229    
    886000   299.54127      372.06495      18541.759      19342.404     -197.70032    
    887000   305.98457      388.92316      18517.378      19344.101      127.25631    
    888000   303.95337      387.73855      18521.424      19344.056      187.34935    
    889000   317.68837      372.05867      18520.929      19347.533     -160.1917     
    890000   306.79366      372.5838       18530.501      19342.042     -114.02838    
    891000   299.20705      376.16331      18522.743      19327.008     -90.433262    
    892000   301.38022      380.0522       18498.901      19310.165      78.746391    
    893000   284.7638       381.29292      18513.559      19302.288      124.19325    
    894000   295.67941      373.20275      18504.958      19301.216     -32.420142    
    895000   276.98478      362.97987      18547.518      19306.804     -462.99148    
    896000   294.81155      381.71782      18523.402      19326.933      212.59533    
    897000   298.24776      387.35943      18528.82       19342.909      172.3955     
    898000   298.32727      378.09742      18545.795      19350.736     -147.37962    
    899000   306.40976      369.82617      18544.905      19353.139     -167.20051    
    900000   309.67483      369.64082      18536.713      19349.433     -146.69745    
    901000   308.39646      379.42159      18521.283      19341.955      73.999304    
    902000   308.9711       386.95333      18504.708      19333.734      196.35889    
    903000   298.12414      372.81469      18527.573      19326.94      -212.63567    
    904000   299.94886      369.51405      18523.646      19322.323     -218.34269    
    905000   298.00141      377.74544      18514.883      19319.005     -31.194464    
    906000   283.66875      382.64765      18529.684      19318.202      11.335109    
    907000   292.17079      375.55571      18525.879      19319.469     -113.68106    
    908000   293.09424      381.78094      18522.542      19323.679      127.78069    
    909000   295.10386      373.7464       18531.571      19327.549     -37.892315    
    910000   305.1178       378.60667      18518.14       19333.306      8.2971476    
    911000   304.11802      384.02895      18520.041      19339.199      58.672974    
    912000   310.00426      376.72476      18524.883      19345.158     -131.75737    
    913000   314.14023      378.94387      18521.431      19349.843      92.727322    
    914000   325.94511      371.87647      18516.852      19355.087     -44.655403    
    915000   307.49528      374.26228      18543.153      19357.376     -58.615456    
    916000   305.41809      381.26474      18536.56       19354.814      128.8715     
    917000   315.43341      368.81033      18520.673      19340.802     -279.22531    
    918000   284.78006      380.14414      18533.625      19321.229     -102.71425    
    919000   286.00497      372.31771      18526.22       19307.75      -6.886889     
    920000   292.80216      373.46545      18510.423      19302.826     -43.696252    
Loop time of 19.3248 on 48 procs for 50000 steps with 481 atoms

Performance: 11.177 ns/day, 2.147 hours/ns, 2587.342 timesteps/s, 1.245 Matom-step/s
100.0% CPU use with 48 MPI tasks x 1 OpenMP threads

MPI task timing breakdown:
Section |  min time  |  avg time  |  max time  |%varavg| %total
---------------------------------------------------------------
Pair    | 0.017962   | 0.87153    | 4.874      | 143.5 |  4.51
Bond    | 0.005357   | 1.0816     | 7.3235     | 162.4 |  5.60
Neigh   | 0.034829   | 0.038941   | 0.042838   |   0.9 |  0.20
Comm    | 6.6511     | 13.977     | 17.366     |  96.3 | 72.32
Output  | 0.0109     | 0.016873   | 0.02265    |   2.9 |  0.09
Modify  | 0.7349     | 2.7247     | 10.452     | 195.4 | 14.10
Other   |            | 0.6146     |            |       |  3.18

Nlocal:        10.0208 ave          50 max           0 min
Histogram: 22 12 6 0 0 0 3 2 1 2
Nghost:        1818.35 ave        2348 max        1173 min
Histogram: 8 0 0 0 24 0 0 0 0 16
Neighs:              0 ave           0 max           0 min
Histogram: 48 0 0 0 0 0 0 0 0 0

Total # of neighbors = 0
Ave neighs/atom = 0
Ave special neighs/atom = 15.567568
Neighbor list builds = 76
Dangerous builds = 0
unfix           myat1
next            cpt
jump            SELF loop
variable        zdes equal  -15+0.60*(${cpt}-1)
variable        zdes equal  -15+0.60*(16-1)
variable        zave equal xcm(H2,z)
fix             mytth2 H2 spring tether ${k1} 2.5 2.5 ${zdes} 0
fix             mytth2 H2 spring tether 0.5 2.5 2.5 ${zdes} 0
fix             mytth2 H2 spring tether 0.5 2.5 2.5 -6 0
run             10000
Generated 0 of 1 mixed pair_coeff terms from geometric mixing rule
Per MPI rank memory allocation (min/avg/max) = 13.32 | 13.76 | 14.98 Mbytes
   Step          Temp          E_pair         E_mol          TotEng         Press     
    920000   292.80216      373.46545      18510.423      19302.826     -43.696252    
    921000   306.40366      372.96598      18498.75       19310.115     -72.181273    
    922000   311.96976      371.99822      18505.956      19324.317     -143.81392    
    923000   291.11941      382.81802      18535.915      19335.264     -66.304224    
    924000   298.00396      383.02338      18539.583      19348.987      49.091454    
    925000   312.30522      379.95915      18530.525      19357.327      43.301276    
    926000   298.79913      368.80744      18560.627      19356.953     -245.55552    
    927000   306.72032      378.28427      18534.942      19352.079     -58.561124    
    928000   302.62969      388.21796      18526.012      19347.23       225.20657    
    929000   292.48856      375.21738      18553.443      19347.15      -92.081651    
    930000   305.55501      372.66363      18530.73       19340.578     -99.490273    
Loop time of 3.71066 on 48 procs for 10000 steps with 481 atoms

Performance: 11.642 ns/day, 2.061 hours/ns, 2694.936 timesteps/s, 1.296 Matom-step/s
100.0% CPU use with 48 MPI tasks x 1 OpenMP threads

MPI task timing breakdown:
Section |  min time  |  avg time  |  max time  |%varavg| %total
---------------------------------------------------------------
Pair    | 0.0037183  | 0.17451    | 0.99532    |  63.2 |  4.70
Bond    | 0.0010565  | 0.21733    | 1.4496     |  72.1 |  5.86
Neigh   | 0.0060265  | 0.0068361  | 0.0076202  |   0.4 |  0.18
Comm    | 1.2334     | 2.6755     | 3.3162     |  41.7 | 72.10
Output  | 0.0021513  | 0.0033485  | 0.004548   |   1.3 |  0.09
Modify  | 0.14575    | 0.50887    | 1.9183     |  82.2 | 13.71
Other   |            | 0.1243     |            |       |  3.35

Nlocal:        10.0208 ave          52 max           0 min
Histogram: 25 9 6 0 0 3 0 1 3 1
Nghost:        1818.35 ave        2347 max        1171 min
Histogram: 8 0 0 0 24 0 0 0 0 16
Neighs:              0 ave           0 max           0 min
Histogram: 48 0 0 0 0 0 0 0 0 0

Total # of neighbors = 0
Ave neighs/atom = 0
Ave special neighs/atom = 15.567568
Neighbor list builds = 14
Dangerous builds = 0
fix             myat1 all ave/time 1000 10 10000 v_zave v_zdes file simulation_data/abpot/${cpt}.dat
fix             myat1 all ave/time 1000 10 10000 v_zave v_zdes file simulation_data/abpot/16.dat
run             50000
Generated 0 of 1 mixed pair_coeff terms from geometric mixing rule
Per MPI rank memory allocation (min/avg/max) = 13.32 | 13.76 | 14.98 Mbytes
   Step          Temp          E_pair         E_mol          TotEng         Press     
    930000   305.55501      372.66363      18530.73       19340.578     -99.490273    
    931000   298.49879      375.77529      18527.718      19330.582     -27.318244    
    932000   287.58829      374.05157      18532.978      19318.508     -34.45606     
    933000   278.41977      381.73309      18535.366      19315.459      55.774605    
    934000   303.35243      370.44871      18510.798      19315.28      -228.32399    
    935000   292.12929      371.7349       18528.632      19318.342     -120.97074    
    936000   302.31769      376.94132      18523.845      19333.339      57.152596    
    937000   314.7845       373.45935      18527.299      19351.149     -64.9459      
    938000   299.36722      377.29346      18557.112      19362.737     -86.404169    
    939000   312.10453      380.2552       18537.883      19364.694      55.833013    
    940000   305.57674      380.68969      18546.314      19364.22       32.97625     
    941000   303.8707       376.80619      18540.547      19352.128      65.876641    
    942000   305.2115       369.07812      18528.212      19333.984     -241.91568    
    943000   292.07624      376.61468      18526.675      19321.189     -19.387452    
    944000   289.85517      378.48083      18519.745      19312.947      32.464202    
    945000   280.57039      375.9012       18535.059      19312.397      8.5855799    
    946000   299.01366      373.06276      18514.038      19314.926     -57.76115     
    947000   287.04668      368.03833      18541.798      19320.54      -221.17437    
    948000   301.41744      377.14134      18525.396      19333.802     -17.624904    
    949000   291.73531      389.82992      18533.364      19340.605      220.35307    
    950000   310.3907       372.86899      18527.89       19344.862     -97.619469    
    951000   296.74949      370.80781      18550.104      19345.498     -122.39693    
    952000   312.44142      373.42302      18521.191      19341.652     -75.560984    
    953000   309.33651      380.69548      18509.341      19332.632      38.863225    
    954000   295.94337      384.22678      18515.994      19323.653      69.427791    
    955000   289.97061      370.54666      18527.418      19312.851     -228.14107    
    956000   282.86242      374.24759      18524.214      19303.178     -148.56722    
    957000   285.92133      371.37649      18516.653      19297.122     -69.986857    
    958000   285.64217      383.71245      18509.813      19302.219      6.6715918    
    959000   301.87035      382.43843      18506.597      19320.949      128.54886    
    960000   285.91868      371.26407      18555.175      19335.529     -229.62843    
    961000   298.1416       371.16642      18550.86       19348.604     -167.24982    
    962000   301.47071      382.01492      18537.37       19350.726      37.3509      
    963000   306.47973      381.41249      18527.662      19347.582      153.14859    
    964000   291.60174      371.90728      18550.959      19340.087     -240.7026     
    965000   308.22531      369.50073      18523.718      19334.224     -272.95402    
    966000   301.68451      377.09731      18516.904      19325.649      155.72817    
    967000   303.28977      384.52188      18496.796      19315.261      103.85192    
    968000   296.58827      375.56008      18508.347      19308.262     -56.560524    
    969000   289.56321      368.58253      18512.377      19295.263     -285.33907    
    970000   278.91637      375.26932      18494.447      19268.786     -132.0259     
    971000   266.75174      384.59138      18490.729      19256.986      137.65082    
    972000   265.10061      377.29227      18506.759      19263.354      122.77652    
    973000   279.13777      368.0007       18515.591      19282.979     -135.82233    
    974000   294.44012      371.57624      18511.31       19304.168     -126.60485    
    975000   291.79708      382.01875      18518.164      19317.683      57.782776    
    976000   316.00281      381.34565      18496.023      19329.501      178.03558    
    977000   299.71612      371.87994      18538.24       19338.951     -180.40615    
    978000   308.26279      371.06078      18530.199      19342.318     -105.74563    
    979000   314.44394      379.06937      18510.214      19339.186      32.564225    
    980000   291.64893      382.6034       18537.46       19337.352     -73.653866    
Loop time of 18.9808 on 48 procs for 50000 steps with 481 atoms

Performance: 11.380 ns/day, 2.109 hours/ns, 2634.237 timesteps/s, 1.267 Matom-step/s
100.0% CPU use with 48 MPI tasks x 1 OpenMP threads

MPI task timing breakdown:
Section |  min time  |  avg time  |  max time  |%varavg| %total
---------------------------------------------------------------
Pair    | 0.017933   | 0.87031    | 4.9409     | 142.6 |  4.59
Bond    | 0.0053487  | 1.0806     | 7.0212     | 160.8 |  5.69
Neigh   | 0.033849   | 0.038024   | 0.042075   |   1.0 |  0.20
Comm    | 6.7919     | 13.695     | 17         |  94.6 | 72.15
Output  | 0.010934   | 0.016912   | 0.022678   |   2.9 |  0.09
Modify  | 0.73739    | 2.6628     | 10.078     | 189.3 | 14.03
Other   |            | 0.6168     |            |       |  3.25

Nlocal:        10.0208 ave          45 max           0 min
Histogram: 23 9 7 1 0 0 0 3 1 4
Nghost:        1818.35 ave        2348 max        1179 min
Histogram: 8 0 0 0 24 0 0 0 0 16
Neighs:              0 ave           0 max           0 min
Histogram: 48 0 0 0 0 0 0 0 0 0

Total # of neighbors = 0
Ave neighs/atom = 0
Ave special neighs/atom = 15.567568
Neighbor list builds = 77
Dangerous builds = 0
unfix           myat1
next            cpt
jump            SELF loop
variable        zdes equal  -15+0.60*(${cpt}-1)
variable        zdes equal  -15+0.60*(17-1)
variable        zave equal xcm(H2,z)
fix             mytth2 H2 spring tether ${k1} 2.5 2.5 ${zdes} 0
fix             mytth2 H2 spring tether 0.5 2.5 2.5 ${zdes} 0
fix             mytth2 H2 spring tether 0.5 2.5 2.5 -5.4 0
run             10000
Generated 0 of 1 mixed pair_coeff terms from geometric mixing rule
Per MPI rank memory allocation (min/avg/max) = 13.32 | 13.76 | 14.98 Mbytes
   Step          Temp          E_pair         E_mol          TotEng         Press     
    980000   291.64893      382.6034       18537.46       19337.352     -73.653866    
    981000   297.6045       384.03242      18516.801      19326.642      76.270975    
    982000   299.44145      374.2767       18504.253      19306.967     -143.72117    
    983000   291.39476      372.02071      18499.449      19288.394     -107.1305     
    984000   296.10039      375.41426      18485.788      19284.859      47.962356    
    985000   305.82902      389.07783      18464.501      19291.156      242.18139    
    986000   292.21923      375.08456      18505.267      19298.455     -93.867923    
    987000   308.28677      370.04357      18498.36       19309.496     -274.93249    
    988000   290.66979      381.33418      18517.442      19314.663      79.684626    
    989000   302.2741       385.07991      18504.565      19322.136      177.21819    
    990000   305.50451      373.2285       18517.45       19327.791     -28.948939    
Loop time of 3.87416 on 48 procs for 10000 steps with 481 atoms

Performance: 11.151 ns/day, 2.152 hours/ns, 2581.206 timesteps/s, 1.242 Matom-step/s
100.0% CPU use with 48 MPI tasks x 1 OpenMP threads

MPI task timing breakdown:
Section |  min time  |  avg time  |  max time  |%varavg| %total
---------------------------------------------------------------
Pair    | 0.0035981  | 0.17615    | 1.0952     |  64.3 |  4.55
Bond    | 0.0010616  | 0.21719    | 1.2983     |  71.5 |  5.61
Neigh   | 0.0050788  | 0.0055887  | 0.0061768  |   0.4 |  0.14
Comm    | 1.3734     | 2.8019     | 3.4811     |  43.1 | 72.32
Output  | 0.0020917  | 0.0032888  | 0.004459   |   1.3 |  0.08
Modify  | 0.14773    | 0.54458    | 2.1064     |  87.6 | 14.06
Other   |            | 0.1254     |            |       |  3.24

Nlocal:        10.0208 ave          44 max           0 min
Histogram: 23 8 9 0 0 0 0 1 3 4
Nghost:        1818.35 ave        2348 max        1179 min
Histogram: 8 0 0 0 24 0 0 0 0 16
Neighs:              0 ave           0 max           0 min
Histogram: 48 0 0 0 0 0 0 0 0 0

Total # of neighbors = 0
Ave neighs/atom = 0
Ave special neighs/atom = 15.567568
Neighbor list builds = 11
Dangerous builds = 0
fix             myat1 all ave/time 1000 10 10000 v_zave v_zdes file simulation_data/abpot/${cpt}.dat
fix             myat1 all ave/time 1000 10 10000 v_zave v_zdes file simulation_data/abpot/17.dat
run             50000
Generated 0 of 1 mixed pair_coeff terms from geometric mixing rule
Per MPI rank memory allocation (min/avg/max) = 13.32 | 13.76 | 14.98 Mbytes
   Step          Temp          E_pair         E_mol          TotEng         Press     
    990000   305.50451      373.2285       18517.45       19327.791     -28.948939    
    991000   311.12905      368.91022      18512.743      19326.813     -190.91967    
    992000   293.8681       375.34822      18531.334      19327.145     -134.17546    
    993000   311.58308      382.84592      18497.535      19326.19       239.94166    
    994000   289.98206      385.44038      18527.662      19328.006      201.20404    
    995000   318.77924      358.05517      18518.869      19333.03      -400.26252    
    996000   297.73206      371.62465      18534.533      19332.149     -268.29158    
    997000   292.56146      379.81517      18528          19326.409      112.51457    
    998000   288.08554      385.38756      18524.544      19322.121      202.43389    
    999000   296.60823      375.7637       18523.782      19323.93      -111.72385    
   1000000   310.73665      365.24128      18519.398      19329.238     -271.76465    
   1001000   309.02044      380.08471      18506.474      19328.701      52.245068    
   1002000   300.2195       382.08071      18514.382      19326.013      84.738474    
   1003000   292.19539      379.71002      18527.914      19325.694      184.99631    
   1004000   303.75965      374.59941      18514.661      19323.876     -48.266377    
   1005000   295.28638      365.0334       18537.374      19324.9       -310.19282    
   1006000   292.72623      380.39417      18532.706      19331.93       112.41225    
   1007000   300.35233      382.55882      18525.816      19338.115      56.621978    
   1008000   306.13254      378.93495      18528.417      19345.363     -33.344135    
   1009000   313.87469      372.37947      18523.912      19345.38      -92.594537    
   1010000   300.8173       370.20908      18542.226      19342.841     -235.93012    
   1011000   300.61181      380.37891      18525.796      19336.287     -14.322247    
   1012000   295.61618      379.44881      18516.207      19318.62       35.777523    
   1013000   281.51298      371.18017      18530.08       19304.046     -263.07971    
   1014000   294.20758      376.05352      18498.114      19295.117     -50.550421    
   1015000   293.50477      373.26971      18503.461      19296.674     -122.76497    
   1016000   300.79358      381.56899      18492.202      19304.143      82.36408     
   1017000   292.77181      377.43978      18520.553      19316.887     -69.756163    
   1018000   300.47505      378.01666      18532.118      19340.051     -92.281425    
   1019000   306.63455      372.10121      18545.278      19356.109     -200.69898    
   1020000   312.26994      373.25043      18533.951      19353.993     -105.32926    
   1021000   310.17276      382.18236      18521.408      19347.382      187.63393    
   1022000   312.52284      379.81685      18509.374      19336.345      70.171593    
   1023000   292.06394      376.95603      18529.989      19324.827     -42.686592    
   1024000   287.694        374.91578      18528.957      19315.502     -69.378279    
   1025000   284.80506      375.47758      18525.344      19308.317     -123.57431    
   1026000   294.62487      376.01325      18513.188      19310.747     -48.931346    
   1027000   287.28526      382.20719      18523.627      19316.879      56.761295    
   1028000   289.41044      377.21224      18544.926      19336.223     -122.38158    
   1029000   311.48529      372.92164      18545.132      19363.724     -68.769538    
   1030000   307.94852      376.34267      18551.931      19368.883     -70.207911    
   1031000   303.80454      375.71151      18555.854      19366.246     -62.288605    
   1032000   294.87714      384.08142      18553.36       19359.348      68.657705    
   1033000   327.16598      375.90353      18506.489      19350.498     -57.083272    
   1034000   316.54211      366.10039      18516.878      19335.883     -189.02686    
   1035000   283.98079      377.40758      18539.971      19323.695      18.896467    
   1036000   300.53307      379.79812      18510.154      19319.952      109.05462    
   1037000   304.01006      374.04605      18513.554      19322.574     -20.060346    
   1038000   290.51415      369.55566      18539.448      19324.668     -267.75064    
   1039000   292.95312      372.96279      18535.6        19327.717     -202.43972    
   1040000   316.71782      385.84535      18492.459      19331.46       320.14223    
Loop time of 19.1736 on 48 procs for 50000 steps with 481 atoms

Performance: 11.266 ns/day, 2.130 hours/ns, 2607.756 timesteps/s, 1.254 Matom-step/s
100.0% CPU use with 48 MPI tasks x 1 OpenMP threads

MPI task timing breakdown:
Section |  min time  |  avg time  |  max time  |%varavg| %total
---------------------------------------------------------------
Pair    | 0.017399   | 0.88183    | 5.0635     | 143.4 |  4.60
Bond    | 0.0052664  | 1.0874     | 6.9895     | 161.2 |  5.67
Neigh   | 0.030248   | 0.033293   | 0.036668   |   0.8 |  0.17
Comm    | 6.9519     | 13.876     | 17.198     |  96.2 | 72.37
Output  | 0.010676   | 0.016667   | 0.022407   |   2.9 |  0.09
Modify  | 0.73034    | 2.6505     | 10.376     | 194.3 | 13.82
Other   |            | 0.6277     |            |       |  3.27

Nlocal:        10.0208 ave          48 max           0 min
Histogram: 23 10 6 1 0 0 4 0 1 3
Nghost:        1818.35 ave        2348 max        1175 min
Histogram: 8 0 0 0 24 0 0 0 0 16
Neighs:              0 ave           0 max           0 min
Histogram: 48 0 0 0 0 0 0 0 0 0

Total # of neighbors = 0
Ave neighs/atom = 0
Ave special neighs/atom = 15.567568
Neighbor list builds = 66
Dangerous builds = 0
unfix           myat1
next            cpt
jump            SELF loop
variable        zdes equal  -15+0.60*(${cpt}-1)
variable        zdes equal  -15+0.60*(18-1)
variable        zave equal xcm(H2,z)
fix             mytth2 H2 spring tether ${k1} 2.5 2.5 ${zdes} 0
fix             mytth2 H2 spring tether 0.5 2.5 2.5 ${zdes} 0
fix             mytth2 H2 spring tether 0.5 2.5 2.5 -4.8 0
run             10000
Generated 0 of 1 mixed pair_coeff terms from geometric mixing rule
Per MPI rank memory allocation (min/avg/max) = 13.32 | 13.76 | 14.98 Mbytes
   Step          Temp          E_pair         E_mol          TotEng         Press     
   1040000   316.71782      385.84535      18492.459      19331.46       320.14223    
   1041000   315.41933      375.57696      18514.131      19341.007      72.219475    
   1042000   299.04286      363.84059      18566.468      19358.176     -393.0724     
   1043000   318.82652      370.01216      18543.008      19369.193     -247.34795    
   1044000   307.84962      387.58001      18545.445      19373.493      310.856      
   1045000   322.94222      384.76689      18518.905      19365.734      159.31866    
   1046000   312.02383      371.20779      18531.033      19348.681     -39.948242    
   1047000   300.77326      355.55539      18543.006      19328.904     -521.03985    
   1048000   306.87871      384.62661      18496.281      19319.986      156.35655    
   1049000   299.50732      394.49926      18489.312      19312.343      447.48354    
   1050000   289.53778      374.21439      18521.622      19310.104     -46.302124    
Loop time of 3.86443 on 48 procs for 10000 steps with 481 atoms

Performance: 11.179 ns/day, 2.147 hours/ns, 2587.702 timesteps/s, 1.245 Matom-step/s
100.0% CPU use with 48 MPI tasks x 1 OpenMP threads

MPI task timing breakdown:
Section |  min time  |  avg time  |  max time  |%varavg| %total
---------------------------------------------------------------
Pair    | 0.0036539  | 0.179      | 1.0486     |  65.4 |  4.63
Bond    | 0.0010923  | 0.21833    | 1.3762     |  72.3 |  5.65
Neigh   | 0.0055491  | 0.0061774  | 0.0067832  |   0.3 |  0.16
Comm    | 1.3967     | 2.7812     | 3.468      |  43.6 | 71.97
Output  | 0.0021853  | 0.0033697  | 0.0045287  |   1.3 |  0.09
Modify  | 0.14596    | 0.54634    | 2.0778     |  87.8 | 14.14
Other   |            | 0.1301     |            |       |  3.37

Nlocal:        10.0208 ave          47 max           0 min
Histogram: 23 13 3 1 0 0 2 1 2 3
Nghost:        1818.35 ave        2348 max        1179 min
Histogram: 8 0 0 0 24 0 0 0 0 16
Neighs:              0 ave           0 max           0 min
Histogram: 48 0 0 0 0 0 0 0 0 0

Total # of neighbors = 0
Ave neighs/atom = 0
Ave special neighs/atom = 15.567568
Neighbor list builds = 12
Dangerous builds = 0
fix             myat1 all ave/time 1000 10 10000 v_zave v_zdes file simulation_data/abpot/${cpt}.dat
fix             myat1 all ave/time 1000 10 10000 v_zave v_zdes file simulation_data/abpot/18.dat
run             50000
Generated 0 of 1 mixed pair_coeff terms from geometric mixing rule
Per MPI rank memory allocation (min/avg/max) = 13.32 | 13.76 | 14.98 Mbytes
   Step          Temp          E_pair         E_mol          TotEng         Press     
   1050000   289.53778      374.21439      18521.622      19310.104     -46.302124    
   1051000   308.74427      364.16673      18509.503      19315.418     -428.69478    
   1052000   298.72771      371.46298      18523.956      19322.835     -114.61584    
   1053000   297.02071      383.96791      18525.73       19334.671      142.02716    
   1054000   308.93761      388.56616      18518.419      19349.01       252.7872     
   1055000   309.84882      372.99171      18553.104      19369.424     -84.042969    
   1056000   317.93591      364.15748      18557.333      19376.389     -385.78622    
   1057000   306.94468      379.96835      18550.588      19369.73      -42.123025    
   1058000   295.65523      387.42562      18533.127      19343.572      289.30254    
   1059000   298.87266      381.07761      18513.682      19322.384      130.47108    
   1060000   288.84679      364.624        18538.859      19316.762     -409.07239    
   1061000   305.41611      366.90972      18511.886      19315.782     -251.65233    
   1062000   307.52151      384.61335      18491.393      19316.005      120.10017    
   1063000   281.83905      388.32942      18524.434      19316.015      239.96516    
   1064000   290.92037      364.38117      18547.895      19328.522     -298.94862    
   1065000   311.61618      360.23856      18537.341      19343.436     -453.83644    
   1066000   317.23943      388.35843      18513.607      19355.868      214.03861    
   1067000   316.51283      387.18132      18519.829      19359.874      304.22677    
   1068000   309.26427      370.44287      18537.22       19350.155     -192.6537     
   1069000   294.41707      362.33015      18543.931      19327.51      -412.44001    
   1070000   292.02703      378.72881      18507.629      19304.187      134.65395    
   1071000   301.61691      392.61472      18472.086      19296.251      276.17033    
   1072000   288.61009      383.14463      18501.657      19297.742      84.489058    
   1073000   292.88313      366.9728       18522.629      19308.655     -226.97565    
   1074000   289.51057      366.55759      18539.113      19319.899     -363.85764    
   1075000   310.67163      381.92752      18502.968      19329.401      6.5154389    
   1076000   301.82501      390.39295      18515.758      19337.999      215.44947    
   1077000   296.45036      371.8598       18548.886      19344.903     -153.18797    
   1078000   311.44347      365.60006      18538.452      19349.662     -278.14374    
   1079000   318.27888      369.9804       18520.676      19346.046     -64.094939    
   1080000   301.74894      386.42891      18519.907      19338.075      132.89759    
   1081000   299.69525      379.33406      18525.009      19333.143     -103.28803    
   1082000   308.28143      375.32511      18516.661      19333.071     -28.473863    
   1083000   308.63193      367.22512      18521.163      19329.975     -305.89923    
   1084000   306.14647      375.39704      18512.152      19325.58       6.6859941    
   1085000   303.32177      384.48471      18502.214      19320.688      232.39763    
   1086000   299.57696      374.70129      18509.123      19312.456     -150.20983    
   1087000   289.39503      376.76568      18515.295      19306.123     -37.537929    
   1088000   289.68459      372.80286      18512.23       19299.51      -90.958033    
   1089000   287.42877      379.01827      18503.641      19293.909     -67.354352    
   1090000   274.24964      378.96299      18525.495      19296.851      82.879324    
   1091000   293.35049      374.5484       18516.347      19310.618     -160.30646    
   1092000   311.49825      380.24949      18507.923      19333.861     -61.787205    
   1093000   318.50306      383.24867      18507.463      19346.423      43.964685    
   1094000   313.5601       375.44497      18523.633      19347.716      12.822369    
   1095000   308.92154      372.8621       18529.397      19344.261     -142.87006    
   1096000   293.41822      377.02341      18539.607      19336.45      -15.980658    
   1097000   302.18598      379.12004      18511.084      19322.569     -1.4147551    
   1098000   307.72019      377.45327      18490.54       19308.275     -29.090116    
   1099000   286.70062      372.94949      18509.853      19293.01      -35.572849    
   1100000   299.3255       371.97698      18483.682      19283.93      -77.657068    
Loop time of 17.5272 on 48 procs for 50000 steps with 481 atoms

Performance: 12.324 ns/day, 1.947 hours/ns, 2852.705 timesteps/s, 1.372 Matom-step/s
100.0% CPU use with 48 MPI tasks x 1 OpenMP threads

MPI task timing breakdown:
Section |  min time  |  avg time  |  max time  |%varavg| %total
---------------------------------------------------------------
Pair    | 0.017002   | 0.83368    | 4.7632     | 139.6 |  4.76
Bond    | 0.0052253  | 1.0312     | 5.2207     | 152.5 |  5.88
Neigh   | 0.020645   | 0.022365   | 0.024322   |   0.7 |  0.13
Comm    | 7.1306     | 12.671     | 15.741     |  89.3 | 72.30
Output  | 0.010151   | 0.01609    | 0.021778   |   2.9 |  0.09
Modify  | 0.75888    | 2.3168     | 8.688      | 177.9 | 13.22
Other   |            | 0.6356     |            |       |  3.63

Nlocal:        10.0208 ave          44 max           0 min
Histogram: 21 11 8 0 0 0 0 2 2 4
Nghost:        1818.35 ave        2347 max        1179 min
Histogram: 8 0 0 0 24 0 0 0 0 16
Neighs:              0 ave           0 max           0 min
Histogram: 48 0 0 0 0 0 0 0 0 0

Total # of neighbors = 0
Ave neighs/atom = 0
Ave special neighs/atom = 15.567568
Neighbor list builds = 48
Dangerous builds = 0
unfix           myat1
next            cpt
jump            SELF loop
variable        zdes equal  -15+0.60*(${cpt}-1)
variable        zdes equal  -15+0.60*(19-1)
variable        zave equal xcm(H2,z)
fix             mytth2 H2 spring tether ${k1} 2.5 2.5 ${zdes} 0
fix             mytth2 H2 spring tether 0.5 2.5 2.5 ${zdes} 0
fix             mytth2 H2 spring tether 0.5 2.5 2.5 -4.2 0
run             10000
Generated 0 of 1 mixed pair_coeff terms from geometric mixing rule
Per MPI rank memory allocation (min/avg/max) = 13.32 | 13.76 | 14.98 Mbytes
   Step          Temp          E_pair         E_mol          TotEng         Press     
   1100000   299.3255       371.97698      18483.682      19283.93      -77.657068    
   1101000   288.06196      376.39215      18489.931      19278.479     -109.17889    
   1102000   294.47651      386.87956      18477.146      19285.359      242.0436     
   1103000   293.23371      371.24519      18503.993      19294.793     -204.73936    
   1104000   305.60444      372.0932       18492.075      19301.424     -101.05516    
   1105000   308.47377      380.52772      18490.291      19312.179      102.53589    
   1106000   303.13897      377.30318      18511.566      19322.597     -26.319584    
   1107000   298.31659      382.18547      18524.407      19333.421      144.35233    
   1108000   316.68997      372.36274      18515.558      19341.038     -106.55007    
   1109000   300.96348      373.74183      18541.443      19345.8       -196.34114    
   1110000   298.35821      386.2895       18533.724      19346.901      228.84123    
Loop time of 3.33205 on 48 procs for 10000 steps with 481 atoms

Performance: 12.965 ns/day, 1.851 hours/ns, 3001.155 timesteps/s, 1.444 Matom-step/s
100.0% CPU use with 48 MPI tasks x 1 OpenMP threads

MPI task timing breakdown:
Section |  min time  |  avg time  |  max time  |%varavg| %total
---------------------------------------------------------------
Pair    | 0.0034363  | 0.15763    | 0.97979    |  63.5 |  4.73
Bond    | 0.0010422  | 0.19445    | 0.98833    |  67.8 |  5.84
Neigh   | 0.0041492  | 0.004742   | 0.005201   |   0.4 |  0.14
Comm    | 1.1935     | 2.4289     | 3.0073     |  38.9 | 72.89
Output  | 0.0021144  | 0.0032239  | 0.0043163  |   1.2 |  0.10
Modify  | 0.12372    | 0.41659    | 1.6605     |  75.8 | 12.50
Other   |            | 0.1265     |            |       |  3.80

Nlocal:        10.0208 ave          48 max           0 min
Histogram: 20 13 7 0 0 0 1 3 3 1
Nghost:        1818.35 ave        2347 max        1175 min
Histogram: 8 0 0 0 24 0 0 0 0 16
Neighs:              0 ave           0 max           0 min
Histogram: 48 0 0 0 0 0 0 0 0 0

Total # of neighbors = 0
Ave neighs/atom = 0
Ave special neighs/atom = 15.567568
Neighbor list builds = 10
Dangerous builds = 0
fix             myat1 all ave/time 1000 10 10000 v_zave v_zdes file simulation_data/abpot/${cpt}.dat
fix             myat1 all ave/time 1000 10 10000 v_zave v_zdes file simulation_data/abpot/19.dat
run             50000
Generated 0 of 1 mixed pair_coeff terms from geometric mixing rule
Per MPI rank memory allocation (min/avg/max) = 13.32 | 13.76 | 14.98 Mbytes
   Step          Temp          E_pair         E_mol          TotEng         Press     
   1110000   298.35821      386.2895       18533.724      19346.901      228.84123    
   1111000   306.22144      374.54679      18529.75       19342.435     -50.996536    
   1112000   297.14659      377.09619      18526.492      19328.742     -4.2051072    
   1113000   295.82682      373.42905      18510.515      19307.21      -77.362829    
   1114000   295.31453      377.06531      18496.165      19295.763      15.443713    
   1115000   282.97056      381.38973      18508.158      19294.419      199.21925    
   1116000   293.55418      372.16772      18512.246      19304.428     -247.62274    
   1117000   293.03443      374.26949      18521.465      19315.005     -208.74225    
   1118000   295.05296      385.84707      18518.12       19326.126      92.254318    
   1119000   318.39115      382.39505      18491.619      19329.565      150.93087    
   1120000   307.31373      380.11783      18508.808      19328.627     -33.562069    
   1121000   295.52449      370.85113      18536.19       19329.874     -154.43517    
   1122000   301.19522      380.54993      18516.436      19327.932     -63.618664    
   1123000   293.63401      386.22595      18519.599      19325.953      41.19968     
   1124000   321.65661      378.80117      18486.32       19325.344      75.312361    
   1125000   292.00614      372.76161      18528.375      19318.935     -78.624771    
   1126000   297.25589      363.69977      18521.226      19310.236     -348.90515    
   1127000   290.80723      379.3106       18496.386      19291.78      -9.542316     
   1128000   282.45374      386.53344      18484.854      19275.52       135.57707    
   1129000   279.18641      371.53159      18497.023      19268.012     -82.904629    
   1130000   295.6719       363.72599      18488.324      19275.094     -375.21561    
   1131000   299.41282      373.79194      18493.703      19295.891      93.949049    
   1132000   289.68524      386.54245      18514.631      19315.652      198.82413    
   1133000   308.30478      380.92401      18502.047      19324.09      -116.76261    
   1134000   290.21466      373.81635      18538.374      19327.426     -92.481079    
   1135000   306.3787       373.28831      18518.151      19329.803     -104.34012    
   1136000   313.46081      378.75985      18503.248      19330.504      122.91966    
   1137000   311.64862      386.14314      18498.361      19330.407      320.45658    
   1138000   306.9031       372.38272      18511.027      19322.523     -358.64485    
   1139000   301.93018      375.39389      18498.769      19306.161     -126.63159    
   1140000   284.78813      386.86904      18492.81       19287.151      328.80941    
   1141000   271.73701      380.96612      18510.704      19280.469     -96.94814     
   1142000   283.81019      369.73293      18510.114      19285.92      -63.834643    
   1143000   284.40503      374.90535      18518.409      19300.238     -202.0076     
   1144000   311.1846       375.82733      18503.601      19324.668     -9.5496528    
   1145000   306.32147      386.44152      18509.733      19334.455      247.03942    
   1146000   314.46018      376.39236      18513.81       19340.129     -50.945319    
   1147000   327.04939      366.71887      18506.998      19341.655     -345.12391    
   1148000   304.00912      378.98519      18522.634      19336.592     -52.643248    
   1149000   294.04342      384.00297      18525.679      19330.396      55.232915    
   1150000   301.38776      382.76094      18504.441      19318.425     -2.613396     
   1151000   295.35061      369.28863      18512.696      19304.569     -238.15698    
   1152000   288.43659      370.21752      18508.941      19291.851     -180.47234    
   1153000   288.98995      380.46988      18492.052      19286.005      77.374439    
   1154000   290.58739      385.49317      18487.541      19288.803      187.30792    
   1155000   294.58204      375.65423      18509.66       19306.799     -3.2915543    
   1156000   310.70751      372.15342      18518.068      19334.779     -134.38585    
   1157000   298.14632      372.24536      18547.394      19346.224     -171.32416    
   1158000   302.75269      386.3751       18532.832      19352.382      110.32999    
   1159000   308.39511      378.55016      18528.584      19348.383     -136.56392    
   1160000   295.26491      369.00133      18543.656      19335.119     -212.48555    
Loop time of 15.6123 on 48 procs for 50000 steps with 481 atoms

Performance: 13.835 ns/day, 1.735 hours/ns, 3202.597 timesteps/s, 1.540 Matom-step/s
100.0% CPU use with 48 MPI tasks x 1 OpenMP threads

MPI task timing breakdown:
Section |  min time  |  avg time  |  max time  |%varavg| %total
---------------------------------------------------------------
Pair    | 0.016862   | 0.7522     | 4.9026     | 135.7 |  4.82
Bond    | 0.005321   | 0.94554    | 4.4803     | 148.6 |  6.06
Neigh   | 0.015452   | 0.017743   | 0.019793   |   0.9 |  0.11
Comm    | 5.3479     | 11.329     | 13.979     |  84.5 | 72.56
Output  | 0.0087943  | 0.014316   | 0.019617   |   2.9 |  0.09
Modify  | 0.6289     | 1.9587     | 7.7011     | 167.2 | 12.55
Other   |            | 0.5951     |            |       |  3.81

Nlocal:        10.0208 ave          45 max           0 min
Histogram: 22 10 7 1 0 0 0 3 2 3
Nghost:        1818.35 ave        2347 max        1178 min
Histogram: 8 0 0 0 24 0 0 0 0 16
Neighs:              0 ave           0 max           0 min
Histogram: 48 0 0 0 0 0 0 0 0 0

Total # of neighbors = 0
Ave neighs/atom = 0
Ave special neighs/atom = 15.567568
Neighbor list builds = 48
Dangerous builds = 0
unfix           myat1
next            cpt
jump            SELF loop
variable        zdes equal  -15+0.60*(${cpt}-1)
variable        zdes equal  -15+0.60*(20-1)
variable        zave equal xcm(H2,z)
fix             mytth2 H2 spring tether ${k1} 2.5 2.5 ${zdes} 0
fix             mytth2 H2 spring tether 0.5 2.5 2.5 ${zdes} 0
fix             mytth2 H2 spring tether 0.5 2.5 2.5 -3.6 0
run             10000
Generated 0 of 1 mixed pair_coeff terms from geometric mixing rule
Per MPI rank memory allocation (min/avg/max) = 13.32 | 13.76 | 14.98 Mbytes
   Step          Temp          E_pair         E_mol          TotEng         Press     
   1160000   295.26491      369.00133      18543.656      19335.119     -212.48555    
   1161000   297.97669      384.27512      18509.338      19319.955      34.407977    
   1162000   285.86177      380.56421      18517.122      19306.694     -12.519185    
   1163000   293.27863      380.26147      18503.44       19303.321     -43.664066    
   1164000   294.65538      378.38851      18501.724      19301.702     -39.872938    
   1165000   299.38134      378.35903      18496.654      19303.364      65.790184    
   1166000   291.59101      375.1645       18524.865      19317.234     -51.080244    
   1167000   302.23663      380.81916      18536.525      19349.781     -85.940525    
   1168000   305.02659      368.84605      18556.867      19362.142     -327.87563    
   1169000   307.65624      382.17744      18540.634      19363.003     -95.954708    
   1170000   298.77426      384.93861      18540.515      19352.936      45.405922    
Loop time of 3.06265 on 48 procs for 10000 steps with 481 atoms

Performance: 14.105 ns/day, 1.701 hours/ns, 3265.150 timesteps/s, 1.571 Matom-step/s
100.0% CPU use with 48 MPI tasks x 1 OpenMP threads

MPI task timing breakdown:
Section |  min time  |  avg time  |  max time  |%varavg| %total
---------------------------------------------------------------
Pair    | 0.0034123  | 0.14792    | 0.98512    |  60.6 |  4.83
Bond    | 0.0010538  | 0.18629    | 0.90352    |  66.2 |  6.08
Neigh   | 0.0046804  | 0.0051989  | 0.0058442  |   0.5 |  0.17
Comm    | 1.0319     | 2.226      | 2.7779     |  38.8 | 72.68
Output  | 0.0016683  | 0.0027612  | 0.0038352  |   1.3 |  0.09
Modify  | 0.10831    | 0.38577    | 1.5887     |  78.7 | 12.60
Other   |            | 0.1087     |            |       |  3.55

Nlocal:        10.0208 ave          51 max           0 min
Histogram: 23 14 3 0 0 1 2 1 3 1
Nghost:        1818.35 ave        2347 max        1179 min
Histogram: 8 0 0 0 24 0 0 0 0 16
Neighs:              0 ave           0 max           0 min
Histogram: 48 0 0 0 0 0 0 0 0 0

Total # of neighbors = 0
Ave neighs/atom = 0
Ave special neighs/atom = 15.567568
Neighbor list builds = 15
Dangerous builds = 0
fix             myat1 all ave/time 1000 10 10000 v_zave v_zdes file simulation_data/abpot/${cpt}.dat
fix             myat1 all ave/time 1000 10 10000 v_zave v_zdes file simulation_data/abpot/20.dat
run             50000
Generated 0 of 1 mixed pair_coeff terms from geometric mixing rule
Per MPI rank memory allocation (min/avg/max) = 13.32 | 13.76 | 14.98 Mbytes
   Step          Temp          E_pair         E_mol          TotEng         Press     
   1170000   298.77426      384.93861      18540.515      19352.936      45.405922    
   1171000   304.91978      379.48577      18521.918      19337.68       106.28547    
   1172000   291.1134       372.37638      18532.605      19321.503     -136.20404    
   1173000   290.72702      368.44         18526.245      19310.654     -420.76923    
   1174000   287.96257      382.42154      18517.564      19311.999      47.856997    
   1175000   278.41495      381.25421      18536.421      19316.028      33.259867    
   1176000   285.86694      375.85353      18538.123      19322.992      3.3982586    
   1177000   312.64395      369.12874      18516.5        19332.956     -199.4754     
   1178000   307.62262      384.68822      18535.476      19360.307     -114.35444    
   1179000   314.9323       386.5525       18539.928      19377.082      165.08604    
   1180000   318.96434      380.16432      18544.54       19381.074     -79.126542    
   1181000   325.34064      375.61277      18535.489      19376.595     -249.79254    
   1182000   319.51435      373.95626      18528.261      19359.374     -174.57804    
   1183000   313.53479      384.64315      18510.092      19343.337      135.84695    
   1184000   305.23155      378.85806      18519.105      19334.685     -129.98712    
   1185000   303.42567      379.5738       18515.4        19329.112      41.524896    
   1186000   316.18686      371.32257      18498.29       19322.01      -59.31079     
   1187000   298.02791      375.68907      18519.146      19321.25      -38.975238    
   1188000   296.83879      382.23946      18515.351      19322.304      36.633537    
   1189000   294.71538      379.35303      18527.628      19328.656     -26.861016    
   1190000   311.39649      373.63728      18522.65       19341.83      -132.98176    
   1191000   317.7159       371.42169      18531.546      19357.552     -189.85081    
   1192000   316.03798      387.27604      18528.774      19368.234      181.44216    
   1193000   317.91734      375.97078      18543.181      19374.024     -84.868176    
   1194000   317.30476      375.04003      18540.558      19369.594     -101.69227    
   1195000   309.41586      379.41675      18530.846      19352.971     -84.583827    
   1196000   309.85602      379.02156      18508.23       19330.59       5.8094937    
   1197000   300.05122      385.48627      18504.338      19319.135      267.24665    
   1198000   304.65904      368.67463      18512.656      19317.233     -120.3263     
   1199000   293.58563      369.59415      18529.171      19318.824     -155.07283    
   1200000   292.80712      382.98489      18524.342      19326.272      95.57004     
   1201000   303.73782      386.79871      18516.737      19338.12       275.81893    
   1202000   300.00709      381.40388      18538.205      19348.856      41.346917    
   1203000   304.73773      372.1361       18550.659      19358.811     -208.11062    
   1204000   321.00384      372.74601      18537.496      19369.531      16.274649    
   1205000   324.32916      386.44234      18530.586      19381.075      133.9532     
   1206000   315.36597      382.27746      18558.959      19392.459     -71.419485    
   1207000   306.27527      380.57784      18575.564      19394.357     -21.73758     
   1208000   314.05132      371.68897      18556.396      19377.426     -208.84053    
   1209000   304.644        375.70732      18539.167      19350.755     -0.12526822   
   1210000   294.15269      382.45418      18530.368      19333.693      80.953532    
   1211000   300.26502      373.48909      18520.57       19323.675     -24.219275    
   1212000   293.94565      381.37896      18516.551      19318.504      72.459805    
   1213000   306.72661      374.40031      18504.272      19317.533     -110.24669    
   1214000   299.48604      380.81894      18513.554      19322.874      108.29032    
   1215000   289.13734      379.0497       18537.514      19330.258      26.084889    
   1216000   306.981        373.95336      18532.284      19345.463     -133.70651    
   1217000   287.72815      377.55527      18566.534      19355.767     -50.778403    
   1218000   313.81574      378.83466      18540.216      19368.055      3.3142336    
   1219000   303.2074       381.72141      18558.498      19374.045     -25.677162    
   1220000   292.51095      369.87172      18583.444      19371.837     -143.72774    
Loop time of 15.6604 on 48 procs for 50000 steps with 481 atoms

Performance: 13.793 ns/day, 1.740 hours/ns, 3192.772 timesteps/s, 1.536 Matom-step/s
100.0% CPU use with 48 MPI tasks x 1 OpenMP threads

MPI task timing breakdown:
Section |  min time  |  avg time  |  max time  |%varavg| %total
---------------------------------------------------------------
Pair    | 0.016519   | 0.73396    | 4.6985     | 136.6 |  4.69
Bond    | 0.0052503  | 0.92965    | 4.4185     | 149.1 |  5.94
Neigh   | 0.029408   | 0.032512   | 0.036215   |   1.1 |  0.21
Comm    | 5.6121     | 11.399     | 14.217     |  89.0 | 72.79
Output  | 0.0084094  | 0.014002   | 0.019366   |   2.9 |  0.09
Modify  | 0.55124    | 2.0069     | 8.2818     | 182.5 | 12.82
Other   |            | 0.5443     |            |       |  3.48

Nlocal:        10.0208 ave          43 max           0 min
Histogram: 21 11 8 0 0 0 0 0 4 4
Nghost:        1818.88 ave        2347 max        1180 min
Histogram: 8 0 0 0 24 0 0 0 0 16
Neighs:              0 ave           0 max           0 min
Histogram: 48 0 0 0 0 0 0 0 0 0

Total # of neighbors = 0
Ave neighs/atom = 0
Ave special neighs/atom = 15.567568
Neighbor list builds = 93
Dangerous builds = 0
unfix           myat1
next            cpt
jump            SELF loop
variable        zdes equal  -15+0.60*(${cpt}-1)
variable        zdes equal  -15+0.60*(21-1)
variable        zave equal xcm(H2,z)
fix             mytth2 H2 spring tether ${k1} 2.5 2.5 ${zdes} 0
fix             mytth2 H2 spring tether 0.5 2.5 2.5 ${zdes} 0
fix             mytth2 H2 spring tether 0.5 2.5 2.5 -3 0
run             10000
Generated 0 of 1 mixed pair_coeff terms from geometric mixing rule
Per MPI rank memory allocation (min/avg/max) = 13.32 | 13.76 | 14.98 Mbytes
   Step          Temp          E_pair         E_mol          TotEng         Press     
   1220000   292.51095      369.87172      18583.444      19371.837     -143.72774    
   1221000   310.99814      375.70221      18532.11       19352.785      3.2575492    
   1222000   287.92769      374.36427      18538.661      19324.989     -88.335785    
   1223000   305.86196      384.73489      18492.142      19314.501      290.03389    
   1224000   289.94902      374.52375      18522.963      19312.342     -91.618323    
   1225000   299.46569      367.54187      18513.755      19309.769     -222.27469    
   1226000   292.68106      376.44622      18517.381      19312.592     -17.522918    
   1227000   285.69362      379.63151      18533.235      19321.634     -143.16028    
   1228000   280.55518      389.3637       18543.623      19334.401      101.77475    
   1229000   290.4272       371.83684      18564.717      19352.093     -90.283293    
   1230000   313.3153       372.75833      18541.039      19362.085     -256.56225    
Loop time of 3.12046 on 48 procs for 10000 steps with 481 atoms

Performance: 13.844 ns/day, 1.734 hours/ns, 3204.653 timesteps/s, 1.541 Matom-step/s
100.0% CPU use with 48 MPI tasks x 1 OpenMP threads

MPI task timing breakdown:
Section |  min time  |  avg time  |  max time  |%varavg| %total
---------------------------------------------------------------
Pair    | 0.0033487  | 0.14581    | 1.0194     |  61.6 |  4.67
Bond    | 0.0010339  | 0.18523    | 0.9197     |  66.8 |  5.94
Neigh   | 0.0052636  | 0.0058685  | 0.0064853  |   0.4 |  0.19
Comm    | 1.0316     | 2.267      | 2.8373     |  39.9 | 72.65
Output  | 0.0016582  | 0.0027328  | 0.0038152  |   1.3 |  0.09
Modify  | 0.10496    | 0.40546    | 1.6604     |  82.2 | 12.99
Other   |            | 0.1084     |            |       |  3.47

Nlocal:        10.0208 ave          44 max           0 min
Histogram: 23 9 7 1 0 0 0 2 2 4
Nghost:        1818.35 ave        2347 max        1179 min
Histogram: 8 0 0 0 24 0 0 0 0 16
Neighs:              0 ave           0 max           0 min
Histogram: 48 0 0 0 0 0 0 0 0 0

Total # of neighbors = 0
Ave neighs/atom = 0
Ave special neighs/atom = 15.567568
Neighbor list builds = 17
Dangerous builds = 0
fix             myat1 all ave/time 1000 10 10000 v_zave v_zdes file simulation_data/abpot/${cpt}.dat
fix             myat1 all ave/time 1000 10 10000 v_zave v_zdes file simulation_data/abpot/21.dat
run             50000
Generated 0 of 1 mixed pair_coeff terms from geometric mixing rule
Per MPI rank memory allocation (min/avg/max) = 13.32 | 13.76 | 14.98 Mbytes
   Step          Temp          E_pair         E_mol          TotEng         Press     
   1230000   313.3153       372.75833      18541.039      19362.085     -256.56225    
   1231000   334.47296      376.71839      18506.967      19362.246     -14.134851    
   1232000   301.46337      383.17448      18532.94       19347.445     -39.887409    
   1233000   301.81791      376.54621      18515.244      19323.628      3.0064249    
   1234000   289.85545      377.0438       18514.888      19306.654      42.611379    
   1235000   288.06194      376.30615      18513.266      19301.728     -35.800068    
   1236000   292.58454      378.5096       18508.055      19305.192     -75.592194    
   1237000   287.41646      384.62889      18514.993      19310.854      81.865105    
   1238000   298.8519       377.79244      18516.909      19322.296     -5.8993256    
   1239000   306.29344      373.11329      18525.629      19336.983     -29.464921    
   1240000   299.52719      378.83485      18539.6        19346.995     -36.58465     
   1241000   308.04149      374.95781      18537.658      19353.358     -96.312661    
   1242000   311.66168      380.82088      18529.98       19356.723     -13.567216    
   1243000   305.03103      380.8848       18537.096      19354.415      16.351526    
   1244000   315.24342      374.50348      18513.238      19338.789     -154.54591    
   1245000   300.23375      373.98111      18508.154      19311.707     -47.753585    
   1246000   286.27655      379.2765       18508.523      19297.401      35.547489    
   1247000   290.99521      380.07312      18500.891      19297.317      39.377743    
   1248000   297.26494      377.1259       18502.41       19304.859     -80.701541    
   1249000   319.79339      368.6068       18494.994      19321.158     -181.90498    
   1250000   296.864        380.8558       18528.79       19334.395      75.883873    
   1251000   312.04344      378.19916      18513.814      19338.482     -37.095403    
   1252000   281.5276       382.35533      18554.879      19340.041      60.426294    
   1253000   309.44674      378.93474      18524.576      19346.264     -37.512069    
   1254000   315.96226      372.45389      18518.803      19343.332     -129.10883    
   1255000   313.52742      377.83169      18510.743      19337.166     -98.300663    
   1256000   319.90599      373.34043      18501.13       19332.189     -18.242074    
   1257000   302.50096      380.11263      18513.336      19326.264      67.401396    
   1258000   294.28498      376.82663      18529.345      19327.232     -19.477901    
   1259000   299.45406      378.73515      18520.271      19327.462     -74.588423    
   1260000   285.5844       371.97259      18544.159      19324.743     -138.75102    
   1261000   294.03598      382.63719      18523.23       19326.571      21.415513    
   1262000   287.73185      378.14548      18537.039      19326.868     -23.965727    
   1263000   305.65971      381.18635      18515.354      19333.875     -57.933285    
   1264000   290.27766      376.19344      18547.479      19338.998     -122.30665    
   1265000   303.18748      371.33238      18539.665      19344.795     -259.4273     
   1266000   309.83925      382.98792      18527.513      19353.815      101.9939     
   1267000   303.65383      384.11217      18543.961      19362.538      138.92529    
   1268000   315.26246      378.58986      18542.223      19371.887     -23.482311    
   1269000   327.08884      375.79261      18530.375      19374.163     -155.13227    
   1270000   296.80967      377.05825      18559.406      19361.137     -119.37377    
   1271000   308.64601      377.89112      18518.807      19338.305     -14.022811    
   1272000   304.86166      379.4095       18506.754      19322.356      8.4551823    
   1273000   303.71424      372.74397      18509.226      19316.521     -122.28189    
   1274000   291.56088      373.68425      18524.611      19315.457     -35.099874    
   1275000   312.24099      375.07531      18498.738      19320.565     -237.83455    
   1276000   292.01267      383.8228       18523.624      19325.255      68.764047    
   1277000   298.25663      381.67764      18527.57       19335.99       96.295704    
   1278000   305.30541      368.27599      18551.121      19356.224     -328.10209    
   1279000   303.45288      373.72855      18564.906      19372.811     -216.17117    
   1280000   328.8439       375.19869      18535.52       19381.225     -35.642079    
Loop time of 15.4578 on 48 procs for 50000 steps with 481 atoms

Performance: 13.974 ns/day, 1.718 hours/ns, 3234.612 timesteps/s, 1.556 Matom-step/s
100.0% CPU use with 48 MPI tasks x 1 OpenMP threads

MPI task timing breakdown:
Section |  min time  |  avg time  |  max time  |%varavg| %total
---------------------------------------------------------------
Pair    | 0.016279   | 0.72848    | 4.9251     | 136.4 |  4.71
Bond    | 0.0052056  | 0.9273     | 4.7244     | 149.1 |  6.00
Neigh   | 0.027322   | 0.030418   | 0.033514   |   0.9 |  0.20
Comm    | 5.2755     | 11.255     | 13.916     |  88.4 | 72.81
Output  | 0.0080186  | 0.013422   | 0.018645   |   2.9 |  0.09
Modify  | 0.53107    | 1.9622     | 8.1887     | 181.1 | 12.69
Other   |            | 0.5411     |            |       |  3.50

Nlocal:        10.0208 ave          48 max           0 min
Histogram: 22 13 4 1 0 0 2 2 3 1
Nghost:        1818.35 ave        2347 max        1175 min
Histogram: 8 0 0 0 24 0 0 0 0 16
Neighs:              0 ave           0 max           0 min
Histogram: 48 0 0 0 0 0 0 0 0 0

Total # of neighbors = 0
Ave neighs/atom = 0
Ave special neighs/atom = 15.567568
Neighbor list builds = 88
Dangerous builds = 0
unfix           myat1
next            cpt
jump            SELF loop
variable        zdes equal  -15+0.60*(${cpt}-1)
variable        zdes equal  -15+0.60*(22-1)
variable        zave equal xcm(H2,z)
fix             mytth2 H2 spring tether ${k1} 2.5 2.5 ${zdes} 0
fix             mytth2 H2 spring tether 0.5 2.5 2.5 ${zdes} 0
fix             mytth2 H2 spring tether 0.5 2.5 2.5 -2.4 0
run             10000
Generated 0 of 1 mixed pair_coeff terms from geometric mixing rule
Per MPI rank memory allocation (min/avg/max) = 13.32 | 13.76 | 14.98 Mbytes
   Step          Temp          E_pair         E_mol          TotEng         Press     
   1280000   328.8439       375.19869      18535.52       19381.225     -35.642079    
   1281000   318.9706       384.0445       18533.634      19374.058      90.514392    
   1282000   288.65634      377.12648      18546.17       19336.303     -7.1883128    
   1283000   298.48194      369.58649      18519.697      19316.348     -100.45619    
   1284000   289.0189       375.22076      18525.137      19313.882     -220.89498    
   1285000   301.01277      377.34707      18505.784      19313.817     -83.349993    
   1286000   293.14197      384.89834      18508.487      19312.81       131.36777    
   1287000   296.70323      374.3643       18515.845      19314.729     -81.376676    
   1288000   313.81426      373.50224      18498.205      19320.709     -9.6924579    
   1289000   296.33832      374.54681      18532.901      19331.445     -119.75104    
   1290000   306.09806      382.00183      18526.735      19346.698      8.7424229    
Loop time of 3.05249 on 48 procs for 10000 steps with 481 atoms

Performance: 14.152 ns/day, 1.696 hours/ns, 3276.016 timesteps/s, 1.576 Matom-step/s
100.0% CPU use with 48 MPI tasks x 1 OpenMP threads

MPI task timing breakdown:
Section |  min time  |  avg time  |  max time  |%varavg| %total
---------------------------------------------------------------
Pair    | 0.0033851  | 0.14501    | 0.82856    |  60.1 |  4.75
Bond    | 0.0010347  | 0.18524    | 0.97224    |  67.0 |  6.07
Neigh   | 0.007009   | 0.0077732  | 0.0085535  |   0.5 |  0.25
Comm    | 1.1085     | 2.2098     | 2.7715     |  39.4 | 72.39
Output  | 0.0016     | 0.0026268  | 0.0036573  |   1.2 |  0.09
Modify  | 0.11552    | 0.39409    | 1.5916     |  79.8 | 12.91
Other   |            | 0.1079     |            |       |  3.54

Nlocal:        10.0208 ave          49 max           0 min
Histogram: 22 14 4 0 0 0 3 1 2 2
Nghost:        1818.35 ave        2347 max        1174 min
Histogram: 8 0 0 0 24 0 0 0 0 16
Neighs:              0 ave           0 max           0 min
Histogram: 48 0 0 0 0 0 0 0 0 0

Total # of neighbors = 0
Ave neighs/atom = 0
Ave special neighs/atom = 15.567568
Neighbor list builds = 22
Dangerous builds = 0
fix             myat1 all ave/time 1000 10 10000 v_zave v_zdes file simulation_data/abpot/${cpt}.dat
fix             myat1 all ave/time 1000 10 10000 v_zave v_zdes file simulation_data/abpot/22.dat
run             50000
Generated 0 of 1 mixed pair_coeff terms from geometric mixing rule
Per MPI rank memory allocation (min/avg/max) = 13.32 | 13.76 | 14.98 Mbytes
   Step          Temp          E_pair         E_mol          TotEng         Press     
   1290000   306.09806      382.00183      18526.735      19346.698      8.7424229    
   1291000   302.93512      376.98728      18544.665      19355.088     -145.04084    
   1292000   313.67809      381.66982      18526.992      19357.469     -55.181702    
   1293000   318.36846      374.60809      18512.587      19342.713     -163.65603    
   1294000   272.99703      374.87512      18547.097      19312.573     -139.93814    
   1295000   295.70561      374.10997      18499.173      19296.376     -134.97457    
   1296000   290.64672      378.39455      18500.192      19294.44      -121.37092    
   1297000   292.79216      381.13965      18499.937      19300          143.303      
   1298000   289.87133      375.42129      18521.42       19311.586     -80.602718    
   1299000   291.2289       374.46885      18531.737      19322.893     -100.99763    
   1300000   300.58761      371.5676       18531.457      19333.102     -100.54753    
   1301000   298.17963      384.76684      18528.549      19339.948      18.012093    
   1302000   312.93697      377.68597      18516.364      19341.796      34.130476    
   1303000   309.8965       388.69233      18505.659      19337.748      164.23507    
   1304000   304.54522      374.05354      18509.929      19319.723     -158.76907    
   1305000   285.46057      373.6178       18510.247      19292.299     -31.070589    
   1306000   279.60584      377.80099      18503.427      19281.285     -28.217677    
   1307000   283.94232      384.02832      18494.013      19284.303      122.11795    
   1308000   290.84476      382.97041      18497.868      19296.976      59.31515     
   1309000   292.93692      370.36389      18521.305      19310.8       -185.39002    
   1310000   296.82503      373.17423      18524.418      19322.286     -126.82481    
   1311000   300.02178      383.74251      18518.968      19331.979      157.37352    
   1312000   302.16479      385.16658      18517.004      19334.505      149.22709    
   1313000   311.19252      382.39584      18508.518      19336.165      0.55239858   
   1314000   308.85905      367.75186      18524.927      19334.591     -262.04664    
   1315000   301.61205      376.89022      18518.77       19327.204     -84.296536    
   1316000   290.04276      385.15785      18509.385      19309.532      121.62216    
   1317000   285.73109      378.76997      18494.452      19282.043     -48.286976    
   1318000   274.5137       373.9751       18499.829      19266.575     -138.55283    
   1319000   284.20402      373.65365      18489.039      19269.329     -178.13661    
   1320000   282.42311      380.77873      18492.632      19277.498      174.0647     
   1321000   293.62361      377.74563      18492.575      19290.434     -56.491056    
   1322000   286.7066       374.99693      18514.914      19300.128     -120.24092    
   1323000   293.95065      376.40418      18518.564      19315.55       15.974021    
   1324000   298.7423       374.99014      18521.308      19323.735     -21.179718    
   1325000   293.35298      377.61622      18529.149      19326.492      95.108059    
   1326000   313.37575      370.37257      18515.547      19334.295     -172.46952    
   1327000   311.26424      378.53702      18516.032      19339.923      71.434464    
   1328000   301.80262      386.96865      18520.673      19339.457      52.583397    
   1329000   282.77743      375.10868      18545.854      19325.557     -182.46046    
   1330000   301.58681      377.14073      18491.008      19299.656      15.095016    
   1331000   294.96502      376.17215      18484.2        19282.405     -39.917949    
   1332000   289.12746      379.5198       18485.001      19278.201      0.20758784   
   1333000   299.60119      379.02469      18483.056      19290.747     -6.9808443    
   1334000   295.08744      378.64032      18505.226      19306.075     -14.688257    
   1335000   286.4319       374.8581       18537.46       19322.142      48.865735    
   1336000   295.4842       375.55897      18528.443      19326.778     -133.8118     
   1337000   306.73006      379.6683       18511.197      19329.732     -67.785068    
   1338000   297.65558      382.18926      18524.084      19332.156      39.041993    
   1339000   305.16048      383.90369      18519.155      19339.679      34.455133    
   1340000   314.84134      374.0859       18514.458      19339.015     -87.438015    
Loop time of 15.6124 on 48 procs for 50000 steps with 481 atoms

Performance: 13.835 ns/day, 1.735 hours/ns, 3202.583 timesteps/s, 1.540 Matom-step/s
100.0% CPU use with 48 MPI tasks x 1 OpenMP threads

MPI task timing breakdown:
Section |  min time  |  avg time  |  max time  |%varavg| %total
---------------------------------------------------------------
Pair    | 0.016636   | 0.72704    | 4.803      | 137.4 |  4.66
Bond    | 0.0052023  | 0.92626    | 4.6376     | 149.2 |  5.93
Neigh   | 0.034725   | 0.038708   | 0.042389   |   1.0 |  0.25
Comm    | 5.5728     | 11.417     | 14.078     |  89.3 | 73.13
Output  | 0.0082854  | 0.013693   | 0.018915   |   2.9 |  0.09
Modify  | 0.56347    | 1.9444     | 8.3057     | 184.8 | 12.45
Other   |            | 0.5452     |            |       |  3.49

Nlocal:        10.0208 ave          50 max           0 min
Histogram: 24 8 6 2 1 0 1 0 5 1
Nghost:        1818.35 ave        2347 max        1182 min
Histogram: 8 0 0 0 24 0 0 0 0 16
Neighs:              0 ave           0 max           0 min
Histogram: 48 0 0 0 0 0 0 0 0 0

Total # of neighbors = 0
Ave neighs/atom = 0
Ave special neighs/atom = 15.567568
Neighbor list builds = 108
Dangerous builds = 0
unfix           myat1
next            cpt
jump            SELF loop
variable        zdes equal  -15+0.60*(${cpt}-1)
variable        zdes equal  -15+0.60*(23-1)
variable        zave equal xcm(H2,z)
fix             mytth2 H2 spring tether ${k1} 2.5 2.5 ${zdes} 0
fix             mytth2 H2 spring tether 0.5 2.5 2.5 ${zdes} 0
fix             mytth2 H2 spring tether 0.5 2.5 2.5 -1.8 0
run             10000
Generated 0 of 1 mixed pair_coeff terms from geometric mixing rule
Per MPI rank memory allocation (min/avg/max) = 13.32 | 13.77 | 14.98 Mbytes
   Step          Temp          E_pair         E_mol          TotEng         Press     
   1340000   314.84134      374.0859       18514.458      19339.015     -87.438015    
   1341000   297.01545      367.7663       18541.9        19334.633     -345.30497    
   1342000   298.24691      379.15455      18519.454      19325.337      1.8081513    
   1343000   296.46378      381.92464      18505.786      19311.888      80.682379    
   1344000   297.54072      381.09388      18493.132      19299.944      52.001589    
   1345000   289.49642      367.93732      18509.101      19291.246     -173.9511     
   1346000   271.19322      373.70883      18527.898      19289.627     -177.32433    
   1347000   291.38074      379.8841       18501.426      19298.214      19.511414    
   1348000   293.98836      383.10295      18515.295      19319.034      58.794584    
   1349000   306.62353      376.22819      18524.886      19339.828     -239.80614    
   1350000   297.71835      372.71562      18547.2        19345.887     -85.175267    
Loop time of 3.17966 on 48 procs for 10000 steps with 481 atoms

Performance: 13.586 ns/day, 1.766 hours/ns, 3144.992 timesteps/s, 1.513 Matom-step/s
100.0% CPU use with 48 MPI tasks x 1 OpenMP threads

MPI task timing breakdown:
Section |  min time  |  avg time  |  max time  |%varavg| %total
---------------------------------------------------------------
Pair    | 0.0032792  | 0.14562    | 1.0466     |  62.5 |  4.58
Bond    | 0.0010433  | 0.18525    | 0.97054    |  67.3 |  5.83
Neigh   | 0.0042614  | 0.0047783  | 0.0052474  |   0.4 |  0.15
Comm    | 1.019      | 2.3199     | 2.8946     |  40.8 | 72.96
Output  | 0.0017692  | 0.0028334  | 0.0038838  |   1.2 |  0.09
Modify  | 0.10304    | 0.4103     | 1.7212     |  84.7 | 12.90
Other   |            | 0.111      |            |       |  3.49

Nlocal:        10.0208 ave          44 max           0 min
Histogram: 22 9 9 0 0 0 0 1 4 3
Nghost:        1818.35 ave        2347 max        1179 min
Histogram: 8 0 0 0 24 0 0 0 0 16
Neighs:              0 ave           0 max           0 min
Histogram: 48 0 0 0 0 0 0 0 0 0

Total # of neighbors = 0
Ave neighs/atom = 0
Ave special neighs/atom = 15.567568
Neighbor list builds = 13
Dangerous builds = 0
fix             myat1 all ave/time 1000 10 10000 v_zave v_zdes file simulation_data/abpot/${cpt}.dat
fix             myat1 all ave/time 1000 10 10000 v_zave v_zdes file simulation_data/abpot/23.dat
run             50000
Generated 0 of 1 mixed pair_coeff terms from geometric mixing rule
Per MPI rank memory allocation (min/avg/max) = 13.32 | 13.77 | 14.98 Mbytes
   Step          Temp          E_pair         E_mol          TotEng         Press     
   1350000   297.71835      372.71562      18547.2        19345.887     -85.175267    
   1351000   304.88952      375.31091      18532.802      19344.346     -98.919489    
   1352000   302.83776      375.70619      18531.822      19340.825     -111.10221    
   1353000   303.56991      380.91608      18514.62       19329.881     -73.739726    
   1354000   307.45882      378.36712      18500.118      19318.394     -46.915583    
   1355000   289.09442      377.87999      18520.727      19312.24      -66.435215    
   1356000   287.8881       373.31132      18524.219      19309.438     -47.478423    
   1357000   284.26726      373.29727      18525.575      19305.599     -59.074759    
   1358000   295.22493      381.28326      18492.832      19296.52       119.7887     
   1359000   281.88315      377.37378      18513.923      19294.612      88.461431    
   1360000   296.63895      372.67267      18505.569      19302.67      -192.17953    
   1361000   285.26238      376.8194       18536.18       19321.15      -36.663392    
   1362000   300.84349      375.99856      18530.657      19337.099     -62.686848    
   1363000   297.69564      384.40702      18535.722      19346.069      60.355817    
   1364000   306.86526      373.82962      18538.031      19350.92      -96.325769    
   1365000   314.32813      369.39531      18528.351      19347.483     -152.943      
   1366000   298.83102      379.07322      18530.243      19336.88      -12.33062     
   1367000   303.43326      377.03401      18507.026      19318.209     -82.60797     
   1368000   281.76631      382.41965      18513.92       19299.488      22.907213    
   1369000   281.96347      370.06855      18515.817      19289.315     -209.4673     
   1370000   294.56743      372.32199      18499.315      19293.101     -63.129876    
   1371000   299.34191      378.18675      18496.222      19302.703     -84.690336    
   1372000   290.06553      380.72751      18514.705      19310.455      20.176333    
   1373000   297.78635      379.51907      18515.668      19321.256     -58.301651    
   1374000   293.26562      378.09873      18527.969      19325.669     -109.01082    
   1375000   303.85536      374.31134      18521.554      19330.619      34.112152    
   1376000   314.99705      381.65631      18503.719      19336.069      27.001868    
   1377000   307.9303       376.64862      18523.889      19341.121     -1.0797492    
   1378000   327.05285      375.8775       18495.989      19339.81      -170.75598    
   1379000   302.28488      372.6104       18524.603      19329.719     -52.136415    
   1380000   297.30655      378.80041      18511.397      19315.58       91.56627     
   1381000   278.80282      377.81165      18526.43       19303.15      -29.185783    
   1382000   277.37483      375.20938      18526.045      19298.119     -57.755573    
   1383000   285.19709      374.38171      18518.815      19301.254     -121.03478    
   1384000   293.23649      370.17655      18514.033      19303.769     -232.20786    
   1385000   280.65032      375.76206      18538.329      19315.642      55.720197    
   1386000   316.7607       384.30806      18498.637      19336.163      51.120385    
   1387000   305.43832      376.52145      18535.836      19349.375     -120.40669    
   1388000   319.69585      372.97433      18519.697      19350.089     -169.74123    
   1389000   300.67494      382.54374      18534.976      19347.722      142.98121    
   1390000   302.32363      385.70254      18520.791      19339.055      207.34909    
   1391000   317.93259      380.5652       18497.119      19332.579      171.39821    
   1392000   314.35093      369.97931      18504.591      19324.34      -202.99684    
   1393000   298.23266      369.29918      18520.868      19316.876     -246.67455    
   1394000   286.72798      384.9976       18519.642      19314.887      192.33824    
   1395000   293.36806      371.72988      18527.264      19318.741     -165.10252    
   1396000   294.96022      375.27845      18524.205      19321.509     -148.47695    
   1397000   303.9516       377.93416      18511.62       19324.445     -37.859544    
   1398000   298.85527      374.21152      18528.7        19330.511     -66.022279    
   1399000   290.23359      380.08755      18542.244      19337.594      95.388007    
   1400000   306.69825      369.29106      18535.805      19343.917     -133.16661    
Loop time of 15.6854 on 48 procs for 50000 steps with 481 atoms

Performance: 13.771 ns/day, 1.743 hours/ns, 3187.679 timesteps/s, 1.533 Matom-step/s
100.0% CPU use with 48 MPI tasks x 1 OpenMP threads

MPI task timing breakdown:
Section |  min time  |  avg time  |  max time  |%varavg| %total
---------------------------------------------------------------
Pair    | 0.016242   | 0.72783    | 4.9067     | 137.9 |  4.64
Bond    | 0.0052082  | 0.92701    | 4.6473     | 149.7 |  5.91
Neigh   | 0.027087   | 0.030073   | 0.032927   |   0.9 |  0.19
Comm    | 5.5628     | 11.456     | 14.301     |  89.8 | 73.04
Output  | 0.0085776  | 0.013811   | 0.018902   |   2.8 |  0.09
Modify  | 0.58327    | 1.981      | 8.4238     | 186.2 | 12.63
Other   |            | 0.5493     |            |       |  3.50

Nlocal:        10.0208 ave          50 max           0 min
Histogram: 24 10 5 1 0 2 0 2 3 1
Nghost:        1818.35 ave        2346 max        1173 min
Histogram: 8 0 0 0 24 0 0 0 0 16
Neighs:              0 ave           0 max           0 min
Histogram: 48 0 0 0 0 0 0 0 0 0

Total # of neighbors = 0
Ave neighs/atom = 0
Ave special neighs/atom = 15.567568
Neighbor list builds = 82
Dangerous builds = 0
unfix           myat1
next            cpt
jump            SELF loop
variable        zdes equal  -15+0.60*(${cpt}-1)
variable        zdes equal  -15+0.60*(24-1)
variable        zave equal xcm(H2,z)
fix             mytth2 H2 spring tether ${k1} 2.5 2.5 ${zdes} 0
fix             mytth2 H2 spring tether 0.5 2.5 2.5 ${zdes} 0
fix             mytth2 H2 spring tether 0.5 2.5 2.5 -1.2 0
run             10000
Generated 0 of 1 mixed pair_coeff terms from geometric mixing rule
Per MPI rank memory allocation (min/avg/max) = 13.32 | 13.77 | 14.98 Mbytes
   Step          Temp          E_pair         E_mol          TotEng         Press     
   1400000   306.69825      369.29106      18535.805      19343.917     -133.16661    
   1401000   313.51892      376.4515       18523.102      19348.133     -61.505348    
   1402000   302.65109      377.12705      18541.533      19351.69      -147.63126    
   1403000   310.66256      380.52296      18529.18       19354.196      58.180392    
   1404000   314.40643      378.20579      18520.351      19348.406      57.248968    
   1405000   292.13628      369.00471      18544.797      19331.787     -195.24673    
   1406000   288.85924      380.73123      18522.246      19316.274      102.42658    
   1407000   285.73049      378.91368      18520.99       19308.724      31.533736    
   1408000   292.89802      376.68332      18510.2        19305.958      18.484377    
   1409000   288.91888      375.04269      18518.629      19307.054     -21.862065    
   1410000   299.06224      370.74817      18515.795      19314.438     -162.85968    
Loop time of 2.99807 on 48 procs for 10000 steps with 481 atoms

Performance: 14.409 ns/day, 1.666 hours/ns, 3335.478 timesteps/s, 1.604 Matom-step/s
100.0% CPU use with 48 MPI tasks x 1 OpenMP threads

MPI task timing breakdown:
Section |  min time  |  avg time  |  max time  |%varavg| %total
---------------------------------------------------------------
Pair    | 0.003361   | 0.14497    | 0.93851    |  60.2 |  4.84
Bond    | 0.0010372  | 0.18528    | 0.96674    |  66.7 |  6.18
Neigh   | 0.0070264  | 0.0078502  | 0.0086718  |   0.5 |  0.26
Comm    | 1.0404     | 2.1774     | 2.6973     |  38.9 | 72.63
Output  | 0.0017689  | 0.0027942  | 0.0038153  |   1.2 |  0.09
Modify  | 0.10839    | 0.36998    | 1.5502     |  78.0 | 12.34
Other   |            | 0.1098     |            |       |  3.66

Nlocal:        10.0208 ave          44 max           0 min
Histogram: 23 7 9 1 0 0 0 3 1 4
Nghost:        1818.35 ave        2348 max        1179 min
Histogram: 8 0 0 0 24 0 0 0 0 16
Neighs:              0 ave           0 max           0 min
Histogram: 48 0 0 0 0 0 0 0 0 0

Total # of neighbors = 0
Ave neighs/atom = 0
Ave special neighs/atom = 15.567568
Neighbor list builds = 23
Dangerous builds = 0
fix             myat1 all ave/time 1000 10 10000 v_zave v_zdes file simulation_data/abpot/${cpt}.dat
fix             myat1 all ave/time 1000 10 10000 v_zave v_zdes file simulation_data/abpot/24.dat
run             50000
Generated 0 of 1 mixed pair_coeff terms from geometric mixing rule
Per MPI rank memory allocation (min/avg/max) = 13.32 | 13.77 | 14.98 Mbytes
   Step          Temp          E_pair         E_mol          TotEng         Press     
   1410000   299.06224      370.74817      18515.795      19314.438     -162.85968    
   1411000   298.81519      380.75152      18524.346      19332.639     -37.372512    
   1412000   303.75209      386.90503      18532.36       19353.87       31.995526    
   1413000   297.58606      367.80558      18571.294      19364.883     -409.38335    
   1414000   314.74033      375.96849      18539.341      19365.636     -201.34552    
   1415000   301.55527      380.8966       18542.607      19354.966      27.558689    
   1416000   303.40457      379.09111      18531.193      19344.392      7.450088     
   1417000   306.68923      381.13425      18514.453      19334.394     -35.718035    
   1418000   290.3333       375.27008      18532.3        19322.976     -92.70004     
   1419000   294.61664      380.4984       18518.011      19320.044      71.932054    
   1420000   289.06568      379.68055      18528.475      19321.748      80.718638    
   1421000   292.35046      374.25971      18530.33       19322.882     -128.30887    
   1422000   313.32432      377.95517      18508.696      19334.952     -24.822861    
   1423000   316.0838       376.09916      18531.312      19359.661     -48.441234    
   1424000   319.71449      379.39693      18540.34       19377.181      42.786989    
   1425000   319.046        384.72548      18543.499      19384.712      241.04432    
   1426000   316.49231      369.00291      18553.493      19375.329     -272.12061    
   1427000   304.6345       372.88621      18546.293      19355.047     -29.768221    
   1428000   300.90909      374.64286      18538.356      19343.536     -55.670122    
   1429000   305.35644      379.10561      18518.837      19334.843      40.507824    
   1430000   288.8017       374.85242      18535.959      19324.026      19.505023    
   1431000   299.07092      365.69157      18528.475      19322.073     -300.92916    
   1432000   311.11274      380.23159      18501.346      19326.714      127.39735    
   1433000   297.52594      384.24994      18519.185      19329.132      181.48825    
   1434000   303.42146      371.35315      18531.182      19336.667     -165.87301    
   1435000   317.314        368.1733       18526.1        19348.282     -242.7969     
   1436000   293.75066      377.86681      18565.958      19364.12      -37.793106    
   1437000   320.38203      388.51677      18531.97       19378.886      299.26635    
   1438000   327.34803      377.22442      18535.734      19381.324     -102.59799    
   1439000   315.71889      365.1078       18546.018      19362.853     -304.88717    
   1440000   312.27969      367.51094      18529.639      19343.956     -257.03197    
   1441000   284.68584      386.00965      18535.242      19328.577      191.91417    
   1442000   280.64208      387.04054      18533.691      19322.271      188.20797    
   1443000   289.44669      367.48052      18539.773      19321.391     -221.6391     
   1444000   300.33029      367.84567      18527.346      19324.901     -205.27397    
   1445000   298.83999      373.39159      18527.349      19328.318     -68.517634    
   1446000   292.68142      382.59947      18535.601      19336.965      98.977638    
   1447000   307.74924      377.58573      18534.71       19352.619      11.343413    
   1448000   312.22936      369.64763      18552.201      19368.583     -197.69092    
   1449000   317.6923       372.06281      18552.106      19378.719     -91.255782    
   1450000   317.17306      381.26744      18546.778      19381.853      123.71021    
   1451000   317.98049      385.15142      18526.251      19366.366      42.46328     
   1452000   298.80994      374.08816      18530.086      19331.708     -72.633447    
   1453000   299.45079      375.67344      18512.453      19316.578      46.546634    
   1454000   279.3694       376.63338      18539.846      19316.198     -22.873453    
   1455000   295.25298      382.54927      18515.168      19320.162      66.024965    
   1456000   306.07417      369.84588      18514.27       19322.043      15.545489    
   1457000   286.42226      373.62702      18548.75       19332.187     -164.81779    
   1458000   299.85376      375.39958      18543.449      19347.876      17.275435    
   1459000   298.82252      377.73232      18550.79       19356.074      34.228886    
   1460000   301.55622      369.13623      18560.402      19361.001     -143.86449    
Loop time of 15.6458 on 48 procs for 50000 steps with 481 atoms

Performance: 13.806 ns/day, 1.738 hours/ns, 3195.750 timesteps/s, 1.537 Matom-step/s
100.0% CPU use with 48 MPI tasks x 1 OpenMP threads

MPI task timing breakdown:
Section |  min time  |  avg time  |  max time  |%varavg| %total
---------------------------------------------------------------
Pair    | 0.016241   | 0.72485    | 4.8619     | 136.6 |  4.63
Bond    | 0.0051742  | 0.92428    | 4.7462     | 149.4 |  5.91
Neigh   | 0.031091   | 0.03555    | 0.039015   |   1.0 |  0.23
Comm    | 5.3468     | 11.41      | 14.092     |  89.0 | 72.93
Output  | 0.0085934  | 0.013937   | 0.019069   |   2.8 |  0.09
Modify  | 0.53893    | 1.9863     | 8.368      | 184.5 | 12.70
Other   |            | 0.5511     |            |       |  3.52

Nlocal:        10.0208 ave          47 max           0 min
Histogram: 22 14 4 0 0 0 1 2 3 2
Nghost:        1818.35 ave        2347 max        1176 min
Histogram: 8 0 0 0 24 0 0 0 0 16
Neighs:              0 ave           0 max           0 min
Histogram: 48 0 0 0 0 0 0 0 0 0

Total # of neighbors = 0
Ave neighs/atom = 0
Ave special neighs/atom = 15.567568
Neighbor list builds = 100
Dangerous builds = 0
unfix           myat1
next            cpt
jump            SELF loop
variable        zdes equal  -15+0.60*(${cpt}-1)
variable        zdes equal  -15+0.60*(25-1)
variable        zave equal xcm(H2,z)
fix             mytth2 H2 spring tether ${k1} 2.5 2.5 ${zdes} 0
fix             mytth2 H2 spring tether 0.5 2.5 2.5 ${zdes} 0
fix             mytth2 H2 spring tether 0.5 2.5 2.5 -0.600000000000001 0
run             10000
Generated 0 of 1 mixed pair_coeff terms from geometric mixing rule
Per MPI rank memory allocation (min/avg/max) = 13.32 | 13.77 | 14.98 Mbytes
   Step          Temp          E_pair         E_mol          TotEng         Press     
   1460000   301.55622      369.13623      18560.402      19361.001     -143.86449    
   1461000   296.09148      372.68921      18560.395      19356.729     -280.14917    
   1462000   298.95327      377.80865      18534.607      19340.155      29.00871     
   1463000   307.23685      382.72257      18488.85       19311.163      199.52616    
   1464000   293.87496      377.29767      18502.852      19300.622     -58.23124     
   1465000   311.59253      367.43441      18486.604      19299.861     -279.35503    
   1466000   288.51696      381.40308      18511.263      19305.473      135.80647    
   1467000   297.81845      384.45211      18505.485      19316.053      155.53371    
   1468000   294.77376      379.33367      18527.009      19328.102      148.49219    
   1469000   301.65937      373.55561      18538.115      19343.281     -169.54975    
   1470000   300.58724      369.03753      18551.776      19350.89      -232.21491    
Loop time of 3.23436 on 48 procs for 10000 steps with 481 atoms

Performance: 13.357 ns/day, 1.797 hours/ns, 3091.801 timesteps/s, 1.487 Matom-step/s
100.0% CPU use with 48 MPI tasks x 1 OpenMP threads

MPI task timing breakdown:
Section |  min time  |  avg time  |  max time  |%varavg| %total
---------------------------------------------------------------
Pair    | 0.0033058  | 0.14503    | 0.9927     |  62.7 |  4.48
Bond    | 0.0010399  | 0.18528    | 1.0237     |  68.0 |  5.73
Neigh   | 0.0035649  | 0.0040602  | 0.0044377  |   0.3 |  0.13
Comm    | 1.0461     | 2.3826     | 2.9676     |  41.8 | 73.67
Output  | 0.0016303  | 0.0026606  | 0.003687   |   1.2 |  0.08
Modify  | 0.10989    | 0.40419    | 1.7795     |  89.0 | 12.50
Other   |            | 0.1105     |            |       |  3.42

Nlocal:        10.0208 ave          49 max           0 min
Histogram: 23 11 5 1 0 1 3 0 2 2
Nghost:        1818.35 ave        2348 max        1174 min
Histogram: 8 0 0 0 24 0 0 0 0 16
Neighs:              0 ave           0 max           0 min
Histogram: 48 0 0 0 0 0 0 0 0 0

Total # of neighbors = 0
Ave neighs/atom = 0
Ave special neighs/atom = 15.567568
Neighbor list builds = 11
Dangerous builds = 0
fix             myat1 all ave/time 1000 10 10000 v_zave v_zdes file simulation_data/abpot/${cpt}.dat
fix             myat1 all ave/time 1000 10 10000 v_zave v_zdes file simulation_data/abpot/25.dat
run             50000
Generated 0 of 1 mixed pair_coeff terms from geometric mixing rule
Per MPI rank memory allocation (min/avg/max) = 13.32 | 13.77 | 14.98 Mbytes
   Step          Temp          E_pair         E_mol          TotEng         Press     
   1470000   300.58724      369.03753      18551.776      19350.89      -232.21491    
   1471000   289.56077      385.4297       18550.958      19350.688      118.55305    
   1472000   309.1762       382.60183      18518.931      19343.899      79.507867    
   1473000   297.89971      370.86236      18540.061      19337.155     -170.10913    
   1474000   289.14756      372.53792      18543.222      19329.469     -135.62483    
   1475000   295.88134      375.41906      18530.635      19329.398     -17.744212    
   1476000   305.88537      380.72424      18512.643      19331.025      90.916635    
   1477000   298.20162      379.80529      18524.646      19331.115      30.635575    
   1478000   303.16646      368.17301      18527.006      19328.946     -283.43701    
   1479000   294.64767      369.30038      18539.995      19330.874     -95.210074    
   1480000   305.09118      388.08852      18512.072      19336.681      279.16098    
   1481000   312.72459      379.36181      18511.957      19338.762     -26.126553    
   1482000   316.05912      372.51096      18515.271      19339.996     -87.806423    
   1483000   295.57931      373.40607      18551.077      19347.394     -191.22837    
   1484000   306.09118      388.24192      18530.828      19357.022      206.0042     
   1485000   313.0804       378.92635      18539.06       19365.938      60.58614     
   1486000   317.3305       373.88334      18542.793      19370.709     -116.40377    
   1487000   322.50223      375.21638      18531.447      19368.096     -145.7293     
   1488000   310.67786      377.95152      18529.38       19351.846     -12.407594    
   1489000   306.03816      374.89728      18515.055      19327.829      2.6088137    
   1490000   289.86091      372.75529      18529.92       19317.405     -27.841144    
   1491000   297.96927      368.69512      18519.579      19314.605     -240.00194    
   1492000   300.49661      378.34781      18507.663      19315.958      47.935678    
   1493000   292.95353      378.3952       18521.108      19318.658     -67.288987    
   1494000   303.85877      373.59429      18514.734      19323.086     -168.76605    
   1495000   317.56028      381.2136       18503.462      19339.037      86.97966     
   1496000   319.27464      378.53384      18528.586      19363.935      75.793141    
   1497000   315.47961      383.84599      18542.852      19378.083      27.810866    
   1498000   318.04918      378.46389      18543.748      19377.273      30.256694    
   1499000   309.11885      371.53471      18552.69       19366.509     -273.30353    
   1500000   306.2384       377.88668      18539.857      19355.907     -120.12152    
   1501000   315.82698      379.02971      18516.034      19346.946      98.648932    
   1502000   312.07234      379.08487      18513.728      19339.322     -42.89871     
   1503000   298.70538      372.39234      18527.547      19327.324     -146.08558    
   1504000   287.4866       371.18393      18534.273      19316.789     -182.89716    
   1505000   293.68974      377.72261      18511.134      19309.064     -54.066995    
   1506000   300.63255      373.36296      18502.206      19305.711     -47.153262    
   1507000   291.83326      379.2299       18519.939      19316.721      126.13843    
   1508000   308.90653      367.48574      18531.688      19341.154     -345.50612    
   1509000   311.90106      372.48222      18544.699      19363.445     -169.17704    
   1510000   306.67169      385.53868      18544.134      19368.455      187.35977    
   1511000   307.52225      375.29116      18546.154      19361.445      33.669282    
   1512000   317.97624      368.59077      18528.489      19352.036     -182.91482    
   1513000   291.29084      378.8308       18545.201      19340.807      152.28076    
   1514000   302.2392       377.09238      18523.343      19332.876     -33.998066    
   1515000   304.12356      376.72302      18514.971      19326.83      -101.39012    
   1516000   294.51668      373.92758      18527.813      19323.131      4.2273232    
   1517000   290.98246      368.90918      18538.198      19323.441     -221.56484    
   1518000   284.33148      378.47025      18536.889      19322.177      113.76654    
   1519000   289.06707      378.77968      18532.679      19325.053      151.55308    
   1520000   296.67803      370.56212      18535.712      19330.758     -137.64422    
Loop time of 15.7788 on 48 procs for 50000 steps with 481 atoms

Performance: 13.689 ns/day, 1.753 hours/ns, 3168.805 timesteps/s, 1.524 Matom-step/s
100.0% CPU use with 48 MPI tasks x 1 OpenMP threads

MPI task timing breakdown:
Section |  min time  |  avg time  |  max time  |%varavg| %total
---------------------------------------------------------------
Pair    | 0.01635    | 0.72077    | 5.068      | 137.3 |  4.57
Bond    | 0.0051331  | 0.91933    | 4.8737     | 149.4 |  5.83
Neigh   | 0.023756   | 0.027077   | 0.029826   |   0.9 |  0.17
Comm    | 5.2318     | 11.509     | 14.256     |  89.5 | 72.94
Output  | 0.0079937  | 0.013247   | 0.018376   |   2.8 |  0.08
Modify  | 0.52357    | 2.0392     | 8.5348     | 186.7 | 12.92
Other   |            | 0.5501     |            |       |  3.49

Nlocal:        10.0208 ave          55 max           0 min
Histogram: 25 9 6 0 1 1 2 2 1 1
Nghost:        1818.35 ave        2348 max        1168 min
Histogram: 8 0 0 0 24 0 0 0 0 16
Neighs:              0 ave           0 max           0 min
Histogram: 48 0 0 0 0 0 0 0 0 0

Total # of neighbors = 0
Ave neighs/atom = 0
Ave special neighs/atom = 15.567568
Neighbor list builds = 77
Dangerous builds = 0
unfix           myat1
next            cpt
jump            SELF loop
variable        zdes equal  -15+0.60*(${cpt}-1)
variable        zdes equal  -15+0.60*(26-1)
variable        zave equal xcm(H2,z)
fix             mytth2 H2 spring tether ${k1} 2.5 2.5 ${zdes} 0
fix             mytth2 H2 spring tether 0.5 2.5 2.5 ${zdes} 0
fix             mytth2 H2 spring tether 0.5 2.5 2.5 0 0
run             10000
Generated 0 of 1 mixed pair_coeff terms from geometric mixing rule
Per MPI rank memory allocation (min/avg/max) = 13.32 | 13.77 | 14.98 Mbytes
   Step          Temp          E_pair         E_mol          TotEng         Press     
   1520000   296.67803      370.56212      18535.712      19330.758     -137.64422    
   1521000   295.64189      369.10648      18542.266      19334.373     -129.14398    
   1522000   297.51681      377.40187      18534.673      19337.758      79.600203    
   1523000   312.76234      378.11843      18514.343      19339.958     -64.930932    
   1524000   300.17077      374.34536      18532.4        19336.226     -63.043941    
   1525000   306.21273      378.05446      18519.233      19335.413     -40.95067     
   1526000   305.30061      372.37067      18524.82       19334.012     -66.663762    
   1527000   320.52737      381.77329      18496.307      19336.687      301.60701    
   1528000   288.52878      377.68096      18547.474      19337.978      3.5768043    
   1529000   306.33591      370.09084      18532.484      19340.877     -190.31593    
   1530000   301.05665      371.481        18536.613      19338.842     -138.44586    
Loop time of 3.1444 on 48 procs for 10000 steps with 481 atoms

Performance: 13.739 ns/day, 1.747 hours/ns, 3180.252 timesteps/s, 1.530 Matom-step/s
100.0% CPU use with 48 MPI tasks x 1 OpenMP threads

MPI task timing breakdown:
Section |  min time  |  avg time  |  max time  |%varavg| %total
---------------------------------------------------------------
Pair    | 0.0032287  | 0.14292    | 1.0045     |  61.5 |  4.55
Bond    | 0.0010122  | 0.18262    | 0.87299    |  66.1 |  5.81
Neigh   | 0.0036096  | 0.0041197  | 0.0045501  |   0.3 |  0.13
Comm    | 1.0343     | 2.2964     | 2.8428     |  40.0 | 73.03
Output  | 0.001605   | 0.0026121  | 0.0036275  |   1.2 |  0.08
Modify  | 0.10051    | 0.40615    | 1.7025     |  83.7 | 12.92
Other   |            | 0.1096     |            |       |  3.48

Nlocal:        10.0208 ave          45 max           0 min
Histogram: 24 7 8 1 0 0 0 4 0 4
Nghost:        1818.35 ave        2348 max        1178 min
Histogram: 8 0 0 0 24 0 0 0 0 16
Neighs:              0 ave           0 max           0 min
Histogram: 48 0 0 0 0 0 0 0 0 0

Total # of neighbors = 0
Ave neighs/atom = 0
Ave special neighs/atom = 15.567568
Neighbor list builds = 12
Dangerous builds = 0
fix             myat1 all ave/time 1000 10 10000 v_zave v_zdes file simulation_data/abpot/${cpt}.dat
fix             myat1 all ave/time 1000 10 10000 v_zave v_zdes file simulation_data/abpot/26.dat
run             50000
Generated 0 of 1 mixed pair_coeff terms from geometric mixing rule
Per MPI rank memory allocation (min/avg/max) = 13.32 | 13.77 | 14.98 Mbytes
   Step          Temp          E_pair         E_mol          TotEng         Press     
   1530000   301.05665      371.481        18536.613      19338.842     -138.44586    
   1531000   295.84044      382.56834      18522.628      19328.482      237.55619    
   1532000   289.55724      375.24455      18529.466      19319.006      106.82899    
   1533000   302.0169       365.8423       18524.962      19322.927     -188.86311    
   1534000   298.38914      365.20641      18535.67       19327.808     -220.03957    
   1535000   305.31628      375.71117      18524.131      19336.685     -37.839157    
   1536000   303.55101      382.23891      18528.2        19344.756      130.5164     
   1537000   307.83476      376.51036      18538.166      19355.123     -1.2441235    
   1538000   312.72741      366.19918      18553.16       19366.806     -357.33214    
   1539000   299.60289      376.81714      18564.465      19369.95       43.34212     
   1540000   310.21512      379.14426      18548.007      19371.004      76.3723      
   1541000   301.4492       380.98859      18542.56       19354.859      114.92802    
   1542000   287.93354      366.93491      18547.141      19326.048     -233.50293    
   1543000   303.30645      369.82034      18516.132      19319.92      -90.813487    
   1544000   286.44854      377.35823      18528.368      19315.574      50.729248    
   1545000   281.57027      378.42378      18535.658      19316.95      -28.93608     
   1546000   289.62695      365.13139      18550.195      19329.721     -257.74138    
   1547000   278.78007      376.39093      18570.084      19345.35      -112.70237    
   1548000   308.98019      373.02233      18544.793      19359.9       -67.929858    
   1549000   303.8606       376.96759      18551.204      19362.932      28.732549    
   1550000   291.34068      372.39136      18573.271      19362.51      -96.874983    
   1551000   308.04399      374.06484      18545.608      19360.419     -23.717766    
   1552000   311.21226      375.86803      18527.984      19349.131      28.630224    
   1553000   297.39139      378.6353       18540.493      19344.632      152.85374    
   1554000   297.47284      374.44577      18541.413      19341.479      125.201      
   1555000   302.46229      365.98923      18543.993      19342.742     -182.86775    
   1556000   301.82977      375.69309      18538.799      19346.347     -25.50919     
   1557000   311.76738      369.39233      18528.979      19344.444     -98.288387    
   1558000   292.58967      375.75027      18548.25       19342.635      130.21178    
   1559000   293.87379      373.46368      18553.465      19347.4       -153.23389    
   1560000   306.97522      374.40445      18543.791      19357.412     -20.990763    
   1561000   300.07265      377.29354      18566.796      19373.43      -57.478047    
   1562000   315.35713      375.8521       18577.251      19404.313     -7.1339139    
   1563000   322.35014      374.59696      18585.662      19421.474     -249.50216    
   1564000   308.51076      378.96645      18593.536      19413.917      51.729929    
   1565000   314.3744       374.52448      18571.544      19395.872     -68.56911     
   1566000   304.49739      380.14083      18565.354      19381.166     -87.435697    
   1567000   310.74434      370.92965      18553.954      19369.493     -132.84058    
   1568000   309.18139      370.63488      18545.996      19359.004     -200.97209    
   1569000   305.45687      378.4782       18531.676      19347.199      47.830304    
   1570000   288.20537      378.56768      18542.953      19333.881     -4.4106472    
   1571000   288.86125      372.11623      18544.959      19330.375     -248.65036    
   1572000   294.51469      374.30591      18540.794      19336.488     -94.599533    
   1573000   303.63         378.81349      18529.192      19342.436      31.330618    
   1574000   301.49864      377.00414      18548.95       19357.335      50.611684    
   1575000   313.8539       373.54401      18554.769      19377.372     -125.00621    
   1576000   312.92314      374.03038      18568.1        19389.857     -54.798624    
   1577000   318.95154      375.94598      18559.697      19391.995     -21.813325    
   1578000   324.29137      381.21455      18535.523      19380.73      -6.570277     
   1579000   307.90292      379.51937      18548.521      19368.585      117.97497    
   1580000   300.32867      364.58381      18566.096      19360.387     -315.98938    
Loop time of 16.1633 on 48 procs for 50000 steps with 481 atoms

Performance: 13.364 ns/day, 1.796 hours/ns, 3093.428 timesteps/s, 1.488 Matom-step/s
100.0% CPU use with 48 MPI tasks x 1 OpenMP threads

MPI task timing breakdown:
Section |  min time  |  avg time  |  max time  |%varavg| %total
---------------------------------------------------------------
Pair    | 0.016281   | 0.73604    | 5.0904     | 138.2 |  4.55
Bond    | 0.0051211  | 0.93257    | 5.0651     | 150.2 |  5.77
Neigh   | 0.020445   | 0.02307    | 0.025343   |   0.8 |  0.14
Comm    | 5.4514     | 11.805     | 14.589     |  90.0 | 73.03
Output  | 0.0084355  | 0.013916   | 0.019156   |   2.9 |  0.09
Modify  | 0.5344     | 2.0925     | 8.7716     | 187.5 | 12.95
Other   |            | 0.5605     |            |       |  3.47

Nlocal:        10.0208 ave          44 max           0 min
Histogram: 24 10 3 3 0 0 1 1 2 4
Nghost:        1818.35 ave        2347 max        1179 min
Histogram: 8 0 0 0 24 0 0 0 0 16
Neighs:              0 ave           0 max           0 min
Histogram: 48 0 0 0 0 0 0 0 0 0

Total # of neighbors = 0
Ave neighs/atom = 0
Ave special neighs/atom = 15.567568
Neighbor list builds = 62
Dangerous builds = 0
unfix           myat1
next            cpt
jump            SELF loop
variable        zdes equal  -15+0.60*(${cpt}-1)
variable        zdes equal  -15+0.60*(27-1)
variable        zave equal xcm(H2,z)
fix             mytth2 H2 spring tether ${k1} 2.5 2.5 ${zdes} 0
fix             mytth2 H2 spring tether 0.5 2.5 2.5 ${zdes} 0
fix             mytth2 H2 spring tether 0.5 2.5 2.5 0.6 0
run             10000
Generated 0 of 1 mixed pair_coeff terms from geometric mixing rule
Per MPI rank memory allocation (min/avg/max) = 13.32 | 13.78 | 14.98 Mbytes
   Step          Temp          E_pair         E_mol          TotEng         Press     
   1580000   300.32867      364.58381      18566.096      19360.387     -315.98938    
   1581000   306.31476      376.74909      18538.204      19353.225     -170.45978    
   1582000   308.24046      377.32363      18528.826      19347.177     -69.019891    
   1583000   304.57534      385.00935      18520.598      19341.39       349.62923    
   1584000   301.03812      370.10378      18536.044      19336.869     -210.51637    
   1585000   295.04542      360.69749      18543.563      19326.408     -363.98137    
   1586000   296.62706      379.73767      18520.824      19324.973      82.458112    
   1587000   293.21808      382.57418      18523.908      19326.015      101.75597    
   1588000   290.85046      381.48686      18533.294      19330.926      126.09196    
   1589000   301.06045      368.7716       18539.71       19339.235     -148.35992    
   1590000   296.72884      368.7058       18559.179      19352.441     -31.861985    
Loop time of 3.545 on 48 procs for 10000 steps with 481 atoms

Performance: 12.186 ns/day, 1.969 hours/ns, 2820.875 timesteps/s, 1.357 Matom-step/s
100.0% CPU use with 48 MPI tasks x 1 OpenMP threads

MPI task timing breakdown:
Section |  min time  |  avg time  |  max time  |%varavg| %total
---------------------------------------------------------------
Pair    | 0.0035907  | 0.16669    | 1.0732     |  62.9 |  4.70
Bond    | 0.0010578  | 0.20291    | 1.0953     |  68.0 |  5.72
Neigh   | 0.0041526  | 0.0046219  | 0.0051785  |   0.4 |  0.13
Comm    | 1.2152     | 2.563      | 3.1525     |  39.4 | 72.30
Output  | 0.0020386  | 0.0032556  | 0.0044358  |   1.3 |  0.09
Modify  | 0.13197    | 0.47543    | 1.8664     |  77.0 | 13.41
Other   |            | 0.1291     |            |       |  3.64

Nlocal:        10.0208 ave          47 max           0 min
Histogram: 21 12 7 0 0 0 2 1 3 2
Nghost:        1818.35 ave        2347 max        1176 min
Histogram: 8 0 0 0 24 0 0 0 0 16
Neighs:              0 ave           0 max           0 min
Histogram: 48 0 0 0 0 0 0 0 0 0

Total # of neighbors = 0
Ave neighs/atom = 0
Ave special neighs/atom = 15.567568
Neighbor list builds = 11
Dangerous builds = 0
fix             myat1 all ave/time 1000 10 10000 v_zave v_zdes file simulation_data/abpot/${cpt}.dat
fix             myat1 all ave/time 1000 10 10000 v_zave v_zdes file simulation_data/abpot/27.dat
run             50000
Generated 0 of 1 mixed pair_coeff terms from geometric mixing rule
Per MPI rank memory allocation (min/avg/max) = 13.32 | 13.78 | 14.98 Mbytes
   Step          Temp          E_pair         E_mol          TotEng         Press     
   1590000   296.72884      368.7058       18559.179      19352.441     -31.861985    
   1591000   301.82132      386.5275       18541.079      19359.449      160.00028    
   1592000   299.77712      380.6736       18558.442      19368.033      14.117481    
   1593000   314.93054      375.88208      18547.489      19373.97      -7.2157033    
   1594000   296.78014      366.98801      18578.398      19370.016     -130.76884    
   1595000   308.23692      370.8491       18537.456      19349.327     -27.943798    
   1596000   310.09949      381.52924      18499.494      19324.71       121.64611    
   1597000   294.57611      384.44588      18510.858      19316.78       304.95925    
   1598000   291.56683      370.62596      18530.799      19318.596     -133.44842    
   1599000   297.27279      366.30598      18533.8        19325.44      -203.32121    
   1600000   292.50805      376.97771      18535.574      19331.069      17.448455    
   1601000   310.63834      384.84359      18516.621      19345.923      279.18843    
   1602000   304.2566       381.38971      18539.915      19356.632      75.40565     
   1603000   302.84135      364.87351      18564.162      19362.338     -349.69973    
   1604000   300.79608      361.47714      18572.883      19364.735     -349.01946    
   1605000   298.47947      383.41899      18550.187      19360.667      124.47624    
   1606000   314.11756      388.84678      18505.404      19343.687      291.50325    
   1607000   298.34612      370.29766      18529.147      19326.315     -263.9116     
   1608000   299.01084      364.23466      18521.384      19313.44      -167.64801    
   1609000   303.58853      371.39845      18504.068      19309.837     -103.96223    
   1610000   294.28058      388.06741      18501.203      19310.324      307.6828     
   1611000   290.75092      377.88402      18528.696      19322.583      31.018377    
   1612000   297.30515      371.30528      18544.768      19341.454     -201.20103    
   1613000   303.09951      370.27674      18549.959      19353.907     -262.37501    
   1614000   306.55073      378.5394       18544.882      19362.03       189.84394    
   1615000   316.16126      381.17188      18523.979      19357.51       110.57078    
   1616000   305.13862      370.42984      18540.843      19347.862     -290.07523    
   1617000   299.6903       378.88972      18534.606      19342.289      110.84728    
   1618000   290.91434      373.51709      18545.56       19335.314     -81.811189    
   1619000   295.33502      382.36282      18522.363      19327.288      166.35482    
   1620000   284.58062      373.87706      18527.209      19308.261     -141.40314    
   1621000   283.98057      376.36672      18498.638      19281.321     -81.751624    
   1622000   283.90074      374.66622      18493.308      19274.176     -89.006339    
   1623000   285.75796      370.38224      18496.926      19276.167     -57.350916    
   1624000   280.12591      377.16999      18514.548      19292.519     -4.9529599    
   1625000   288.01999      373.71122      18521.554      19307.361     -85.650542    
   1626000   281.61176      379.75764      18538.171      19320.855     -9.7988073    
   1627000   302.25092      374.23614      18526.211      19332.904     -103.38264    
   1628000   315.20776      372.11317      18517.876      19340.985     -128.99463    
   1629000   311.49133      377.80785      18523.155      19346.642     -21.020235    
   1630000   303.35948      381.89522      18534.863      19350.802      92.452389    
   1631000   312.82756      371.26975      18530.229      19349.089     -131.38622    
   1632000   313.60207      377.17588      18532.901      19358.775     -5.4778662    
   1633000   303.5393       381.83039      18542.38       19358.511     -32.158438    
   1634000   311.30187      376.80398      18526.179      19348.39      -83.224249    
   1635000   301.67931      381.28717      18516.031      19328.958      106.07171    
   1636000   282.61357      374.08402      18536.385      19314.829     -71.440003    
   1637000   294.67178      375.03678      18516.92       19313.57      -85.25248     
   1638000   295.73175      376.50403      18513.295      19312.929      19.820891    
   1639000   302.47989      370.94109      18522.889      19326.615     -121.04441    
   1640000   305.41581      382.10491      18521.654      19340.744      82.225615    
Loop time of 21.0937 on 48 procs for 50000 steps with 481 atoms

Performance: 10.240 ns/day, 2.344 hours/ns, 2370.373 timesteps/s, 1.140 Matom-step/s
100.0% CPU use with 48 MPI tasks x 1 OpenMP threads

MPI task timing breakdown:
Section |  min time  |  avg time  |  max time  |%varavg| %total
---------------------------------------------------------------
Pair    | 0.018706   | 0.87573    | 7.2108     | 155.6 |  4.15
Bond    | 0.0053784  | 1.0507     | 5.5189     | 155.3 |  4.98
Neigh   | 0.026492   | 0.028383   | 0.031073   |   0.7 |  0.13
Comm    | 6.8257     | 15.442     | 19.087     | 103.2 | 73.21
Output  | 0.010827   | 0.016839   | 0.022575   |   2.9 |  0.08
Modify  | 0.73508    | 2.9721     | 12.47      | 223.9 | 14.09
Other   |            | 0.708      |            |       |  3.36

Nlocal:        10.0208 ave          46 max           0 min
Histogram: 24 8 8 0 0 0 1 2 3 2
Nghost:        1818.35 ave        2348 max        1177 min
Histogram: 8 0 0 0 24 0 0 0 0 16
Neighs:              0 ave           0 max           0 min
Histogram: 48 0 0 0 0 0 0 0 0 0

Total # of neighbors = 0
Ave neighs/atom = 0
Ave special neighs/atom = 15.567568
Neighbor list builds = 57
Dangerous builds = 0
unfix           myat1
next            cpt
jump            SELF loop
variable        zdes equal  -15+0.60*(${cpt}-1)
variable        zdes equal  -15+0.60*(28-1)
variable        zave equal xcm(H2,z)
fix             mytth2 H2 spring tether ${k1} 2.5 2.5 ${zdes} 0
fix             mytth2 H2 spring tether 0.5 2.5 2.5 ${zdes} 0
fix             mytth2 H2 spring tether 0.5 2.5 2.5 1.2 0
run             10000
Generated 0 of 1 mixed pair_coeff terms from geometric mixing rule
Per MPI rank memory allocation (min/avg/max) = 13.32 | 13.79 | 14.98 Mbytes
   Step          Temp          E_pair         E_mol          TotEng         Press     
   1640000   305.41581      382.10491      18521.654      19340.744      82.225615    
   1641000   302.80483      372.50699      18548.173      19353.93      -177.74651    
   1642000   307.28628      373.61345      18549.883      19363.158     -138.68585    
   1643000   302.19181      380.62073      18552.481      19365.474      11.277942    
   1644000   307.81779      381.40284      18540.757      19362.582     -1.3104211    
   1645000   290.48862      376.23624      18562.115      19353.979     -52.957666    
   1646000   312.09888      372.73278      18525.121      19344.401     -50.652671    
   1647000   303.17967      381.20008      18528.165      19343.151      111.32521    
   1648000   304.4935       379.5718       18520.436      19335.674      14.385382    
   1649000   285.26731      374.97229      18544.763      19327.892     -76.294644    
   1650000   302.67701      369.91479      18521.1        19324.082     -170.57208    
Loop time of 3.24768 on 48 procs for 10000 steps with 481 atoms

Performance: 13.302 ns/day, 1.804 hours/ns, 3079.118 timesteps/s, 1.481 Matom-step/s
100.0% CPU use with 48 MPI tasks x 1 OpenMP threads

MPI task timing breakdown:
Section |  min time  |  avg time  |  max time  |%varavg| %total
---------------------------------------------------------------
Pair    | 0.0033658  | 0.15554    | 1.0101     |  60.6 |  4.79
Bond    | 0.0010465  | 0.1949     | 0.95393    |  65.6 |  6.00
Neigh   | 0.0023041  | 0.0026407  | 0.0029788  |   0.4 |  0.08
Comm    | 1.1266     | 2.3988     | 2.9507     |  36.8 | 73.86
Output  | 0.0018189  | 0.0030143  | 0.0042247  |   1.4 |  0.09
Modify  | 0.12428    | 0.36293    | 1.4749     |  76.0 | 11.18
Other   |            | 0.1298     |            |       |  4.00

Nlocal:        10.0208 ave          55 max           0 min
Histogram: 25 9 6 0 1 1 1 4 0 1
Nghost:        1818.35 ave        2347 max        1180 min
Histogram: 8 0 0 0 24 0 0 0 0 16
Neighs:              0 ave           0 max           0 min
Histogram: 48 0 0 0 0 0 0 0 0 0

Total # of neighbors = 0
Ave neighs/atom = 0
Ave special neighs/atom = 15.567568
Neighbor list builds = 7
Dangerous builds = 0
fix             myat1 all ave/time 1000 10 10000 v_zave v_zdes file simulation_data/abpot/${cpt}.dat
fix             myat1 all ave/time 1000 10 10000 v_zave v_zdes file simulation_data/abpot/28.dat
run             50000
Generated 0 of 1 mixed pair_coeff terms from geometric mixing rule
Per MPI rank memory allocation (min/avg/max) = 13.32 | 13.79 | 14.98 Mbytes
   Step          Temp          E_pair         E_mol          TotEng         Press     
   1650000   302.67701      369.91479      18521.1        19324.082     -170.57208    
   1651000   316.11548      371.29418      18507.711      19331.3       -184.58942    
   1652000   304.94996      383.36703      18528.201      19347.887      284.64137    
   1653000   317.09945      377.10217      18538.391      19369.196      73.485808    
   1654000   298.59091      363.6789       18586.875      19377.775     -362.04432    
   1655000   306.21024      375.96621      18563.708      19377.797      25.562632    
   1656000   313.21386      380.38199      18539.006      19367.531      222.74058    
   1657000   299.77396      381.66086      18539.134      19349.708      96.63198     
   1658000   302.0548       372.49198      18532.895      19337.564     -129.19848    
   1659000   299.48522      368.65096      18532.151      19329.302     -207.4638     
   1660000   299.14174      376.88494      18518.51       19323.404     -28.643943    
   1661000   277.1238       385.35361      18538.366      19320.225      105.97458    
   1662000   296.15816      374.5147       18530.599      19328.854     -59.173709    
   1663000   303.09676      371.74922      18535.454      19340.871     -102.07399    
   1664000   306.98947      371.6525       18542.578      19353.468     -220.71771    
   1665000   311.82937      377.05035      18541.668      19364.88      -61.354574    
   1666000   307.59976      391.21605      18552.362      19383.688      339.57258    
   1667000   310.19314      370.85519      18591.503      19406.179     -264.60724    
   1668000   317.78485      363.63716      18593.417      19411.737     -391.71644    
   1669000   309.19579      377.35335      18572.454      19392.201     -116.52644    
   1670000   309.46364      383.42901      18533.633      19359.839      104.06763    
   1671000   300.86668      386.69827      18533.386      19350.561      238.36359    
   1672000   315.23972      364.84771      18525.321      19341.211     -151.14922    
   1673000   291.32207      364.95747      18548.067      19329.845     -297.48354    
   1674000   295.42384      380.8022       18520.76       19324.251      16.952071    
   1675000   288.10034      395.92829      18510.999      19319.138      363.61497    
   1676000   303.47173      373.32099      18509.96       19317.485     -92.217003    
   1677000   307.86547      367.58301      18522.557      19330.631     -216.5725     
   1678000   311.85058      371.41791      18525.062      19342.673     -149.67289    
   1679000   302.19873      384.72059      18536.905      19354.008      90.185375    
   1680000   313.43451      386.07993      18531.496      19366.034      135.14496    
   1681000   308.7253       367.64544      18558.735      19368.101     -191.05639    
   1682000   328.16074      364.7047       18533.704      19367.937     -181.3496     
   1683000   296.07293      375.7088       18553.154      19352.481     -63.19128     
   1684000   303.47928      388.37338      18501.514      19324.102      224.60664    
   1685000   303.07002      373.11642      18505.946      19312.691     -50.091354    
   1686000   278.72727      370.62009      18539.88       19309.3       -190.51002    
   1687000   286.04725      375.4947       18533.953      19318.721     -25.753355    
   1688000   297.61377      387.42203      18516.104      19329.349      215.48399    
   1689000   300.43575      378.40026      18531.653      19339.914      34.479423    
   1690000   306.72302      367.24364      18544.174      19350.274     -234.33591    
   1691000   305.08979      370.19227      18549.103      19355.815     -199.14765    
   1692000   315.72319      388.32237      18518.838      19358.893      236.25829    
   1693000   309.04844      387.71866      18519.316      19349.218      125.20957    
   1694000   311.20882      368.62368      18515.553      19329.451     -123.37502    
   1695000   289.24724      366.58738      18521.137      19301.576     -251.09112    
   1696000   279.55295      377.04967      18518.321      19295.352     -48.383551    
   1697000   291.54637      391.49855      18490.46       19299.1        259.95326    
   1698000   294.7473       374.03042      18513.633      19309.385     -54.410927    
   1699000   299.8758       364.66797      18528.499      19322.226     -358.71733    
   1700000   314.18645      368.3767       18519.66       19337.571     -212.00029    
Loop time of 19.9334 on 48 procs for 50000 steps with 481 atoms

Performance: 10.836 ns/day, 2.215 hours/ns, 2508.349 timesteps/s, 1.207 Matom-step/s
100.0% CPU use with 48 MPI tasks x 1 OpenMP threads

MPI task timing breakdown:
Section |  min time  |  avg time  |  max time  |%varavg| %total
---------------------------------------------------------------
Pair    | 0.0181     | 0.83795    | 6.4889     | 151.9 |  4.20
Bond    | 0.0053467  | 1.0183     | 6.3374     | 154.6 |  5.11
Neigh   | 0.025907   | 0.027461   | 0.029551   |   0.6 |  0.14
Comm    | 5.753      | 14.65      | 17.955     | 100.5 | 73.50
Output  | 0.010874   | 0.016942   | 0.022718   |   2.9 |  0.08
Modify  | 0.69565    | 2.7246     | 11.551     | 217.7 | 13.67
Other   |            | 0.658      |            |       |  3.30

Nlocal:        10.0208 ave          47 max           0 min
Histogram: 24 6 10 0 0 0 1 3 2 2
Nghost:        1818.35 ave        2347 max        1176 min
Histogram: 8 0 0 0 24 0 0 0 0 16
Neighs:              0 ave           0 max           0 min
Histogram: 48 0 0 0 0 0 0 0 0 0

Total # of neighbors = 0
Ave neighs/atom = 0
Ave special neighs/atom = 15.567568
Neighbor list builds = 48
Dangerous builds = 0
unfix           myat1
next            cpt
jump            SELF loop
variable        zdes equal  -15+0.60*(${cpt}-1)
variable        zdes equal  -15+0.60*(29-1)
variable        zave equal xcm(H2,z)
fix             mytth2 H2 spring tether ${k1} 2.5 2.5 ${zdes} 0
fix             mytth2 H2 spring tether 0.5 2.5 2.5 ${zdes} 0
fix             mytth2 H2 spring tether 0.5 2.5 2.5 1.8 0
run             10000
Generated 0 of 1 mixed pair_coeff terms from geometric mixing rule
Per MPI rank memory allocation (min/avg/max) = 13.32 | 13.79 | 14.98 Mbytes
   Step          Temp          E_pair         E_mol          TotEng         Press     
   1700000   314.18645      368.3767       18519.66       19337.571     -212.00029    
   1701000   305.81212      382.54368      18522.93       19343.026      239.24224    
   1702000   306.94781      388.70611      18525.586      19353.469      234.68978    
   1703000   305.26121      373.26388      18549.713      19359.741     -267.82513    
   1704000   308.29139      372.02663      18546.117      19359.244     -192.46819    
   1705000   312.64423      378.94471      18517.9        19344.172      89.163318    
   1706000   291.99328      387.02935      18519.557      19324.367      106.65696    
   1707000   280.68649      377.05821      18525.7        19304.361     -6.5607956    
   1708000   290.96583      370.04979      18510.879      19297.24      -88.885939    
   1709000   288.49331      369.22754      18519.469      19301.469     -303.77948    
   1710000   292.65846      377.97239      18512.02       19308.725     -73.169632    
Loop time of 3.96747 on 48 procs for 10000 steps with 481 atoms

Performance: 10.889 ns/day, 2.204 hours/ns, 2520.497 timesteps/s, 1.212 Matom-step/s
100.0% CPU use with 48 MPI tasks x 1 OpenMP threads

MPI task timing breakdown:
Section |  min time  |  avg time  |  max time  |%varavg| %total
---------------------------------------------------------------
Pair    | 0.0034486  | 0.16617    | 1.3094     |  68.8 |  4.19
Bond    | 0.0010415  | 0.20217    | 1.2959     |  69.9 |  5.10
Neigh   | 0.0060978  | 0.0065025  | 0.0070149  |   0.3 |  0.16
Comm    | 1.0997     | 2.8919     | 3.6254     |  45.2 | 72.89
Output  | 0.0021256  | 0.0033146  | 0.0044979  |   1.3 |  0.08
Modify  | 0.13204    | 0.56772    | 2.2948     |  95.1 | 14.31
Other   |            | 0.1297     |            |       |  3.27

Nlocal:        10.0208 ave          47 max           0 min
Histogram: 21 14 5 0 0 0 1 3 2 2
Nghost:        1818.35 ave        2345 max        1176 min
Histogram: 8 0 0 0 24 0 0 0 0 16
Neighs:              0 ave           0 max           0 min
Histogram: 48 0 0 0 0 0 0 0 0 0

Total # of neighbors = 0
Ave neighs/atom = 0
Ave special neighs/atom = 15.567568
Neighbor list builds = 11
Dangerous builds = 0
fix             myat1 all ave/time 1000 10 10000 v_zave v_zdes file simulation_data/abpot/${cpt}.dat
fix             myat1 all ave/time 1000 10 10000 v_zave v_zdes file simulation_data/abpot/29.dat
run             50000
Generated 0 of 1 mixed pair_coeff terms from geometric mixing rule
Per MPI rank memory allocation (min/avg/max) = 13.32 | 13.79 | 14.98 Mbytes
   Step          Temp          E_pair         E_mol          TotEng         Press     
   1710000   292.65846      377.97239      18512.02       19308.725     -73.169632    
   1711000   287.76927      387.17814      18514.109      19313.024      290.89195    
   1712000   291.70147      370.70703      18534.615      19322.685     -171.06315    
   1713000   268.83971      380.42265      18569.768      19334.844     -130.80978    
   1714000   299.70953      374.15815      18542.448      19345.427     -23.87638     
   1715000   320.8985       378.03303      18517.162      19354.333      85.820288    
   1716000   306.40116      378.66712      18545.054      19362.116      140.2748     
   1717000   322.62727      373.05887      18529.389      19364.06      -65.905157    
   1718000   301.65666      374.20608      18544.521      19350.334     -117.08272    
   1719000   289.79444      377.33048      18528.846      19320.811      40.214116    
   1720000   285.20576      377.70133      18516.833      19302.603      65.475726    
   1721000   279.71327      371.10272      18528.046      19299.359     -201.2626     
   1722000   277.72829      381.37984      18529.394      19308.145      95.708813    
   1723000   304.45899      377.40466      18507.476      19320.497      108.18554    
   1724000   315.76091      383.33859      18498.403      19333.529      178.32944    
   1725000   293.21942      367.18326      18551.767      19338.485     -268.88539    
   1726000   307.38991      383.34245      18521.496      19344.648      121.16802    
   1727000   309.68159      386.24174      18519.318      19348.649      98.41909     
   1728000   310.22735      372.23307      18533.869      19349.972     -187.87209    
   1729000   298.00013      374.74724      18544.677      19345.799     -109.01979    
   1730000   303.53588      374.0289       18517.472      19325.797     -151.66892    
   1731000   297.99944      386.65266      18490.921      19303.948      144.02282    
   1732000   278.14835      375.16298      18515.094      19288.229     -89.435823    
   1733000   284.65497      371.33635      18511.443      19290.061     -90.172494    
   1734000   297.52019      377.74853      18501.633      19305.07      -21.110575    
   1735000   298.60323      385.76475      18512.241      19325.244      136.52267    
   1736000   304.52304      377.44084      18524.202      19337.351     -88.102684    
   1737000   305.26318      372.33039      18534.583      19343.68      -153.70765    
   1738000   309.669        376.24924      18526.494      19345.815     -71.461339    
   1739000   301.3243       383.25551      18531.31       19345.697      11.641153    
   1740000   302.62304      383.07913      18525.068      19341.137      76.935742    
   1741000   304.63675      373.86462      18521.698      19331.434     -132.19112    
   1742000   290.66292      377.14763      18524.867      19317.892     -106.01874    
   1743000   281.52124      374.54503      18514.427      19291.77      -33.5502      
   1744000   295.24485      380.13398      18475.902      19278.469      38.222553    
   1745000   276.89494      377.96204      18507.434      19281.574     -15.281903    
   1746000   287.20836      377.13737      18508.823      19296.895     -8.9467282    
   1747000   289.73546      375.95258      18522.769      19313.271     -194.38965    
   1748000   293.95729      373.43456      18526.453      19320.478     -123.13788    
   1749000   288.12989      387.64189      18530.887      19330.782      258.79261    
   1750000   291.36855      381.481        18543.88       19342.247      20.536609    
   1751000   302.98044      372.44051      18544.011      19349.952     -325.96631    
   1752000   306.04677      378.19364      18538.758      19354.84       52.460998    
   1753000   307.97489      383.65501      18532.701      19357.003      133.63438    
   1754000   300.70952      380.20587      18545.129      19355.586      65.203629    
   1755000   302.36053      368.52188      18541.562      19342.698     -165.33519    
   1756000   293.62498      375.37807      18528.388      19323.881     -107.16154    
   1757000   279.79642      384.51626      18524.745      19309.59       230.53002    
   1758000   270.29486      384.80911      18531.738      19303.282      282.04861    
   1759000   296.03796      368.0704       18517.354      19308.992     -173.55303    
   1760000   301.93047      370.62249      18523.393      19326.014     -128.71714    
Loop time of 20.3735 on 48 procs for 50000 steps with 481 atoms

Performance: 10.602 ns/day, 2.264 hours/ns, 2454.174 timesteps/s, 1.180 Matom-step/s
100.0% CPU use with 48 MPI tasks x 1 OpenMP threads

MPI task timing breakdown:
Section |  min time  |  avg time  |  max time  |%varavg| %total
---------------------------------------------------------------
Pair    | 0.017467   | 0.84143    | 6.7954     | 154.7 |  4.13
Bond    | 0.005299   | 1.0194     | 6.7013     | 158.5 |  5.00
Neigh   | 0.038321   | 0.04076    | 0.043918   |   0.8 |  0.20
Comm    | 5.5382     | 14.933     | 18.406     | 103.5 | 73.30
Output  | 0.010808   | 0.016866   | 0.022652   |   2.9 |  0.08
Modify  | 0.68182    | 2.8667     | 12.115     | 221.9 | 14.07
Other   |            | 0.6548     |            |       |  3.21

Nlocal:        10.0208 ave          40 max           0 min
Histogram: 22 6 10 2 0 0 0 0 1 7
Nghost:        1818.35 ave        2347 max        1183 min
Histogram: 8 0 0 0 24 0 0 0 0 16
Neighs:              0 ave           0 max           0 min
Histogram: 48 0 0 0 0 0 0 0 0 0

Total # of neighbors = 0
Ave neighs/atom = 0
Ave special neighs/atom = 15.567568
Neighbor list builds = 69
Dangerous builds = 0
unfix           myat1
next            cpt
jump            SELF loop
variable        zdes equal  -15+0.60*(${cpt}-1)
variable        zdes equal  -15+0.60*(30-1)
variable        zave equal xcm(H2,z)
fix             mytth2 H2 spring tether ${k1} 2.5 2.5 ${zdes} 0
fix             mytth2 H2 spring tether 0.5 2.5 2.5 ${zdes} 0
fix             mytth2 H2 spring tether 0.5 2.5 2.5 2.4 0
run             10000
Generated 0 of 1 mixed pair_coeff terms from geometric mixing rule
Per MPI rank memory allocation (min/avg/max) = 13.32 | 13.79 | 14.98 Mbytes
   Step          Temp          E_pair         E_mol          TotEng         Press     
   1760000   301.93047      370.62249      18523.393      19326.014     -128.71714    
   1761000   304.18463      376.05331      18535.902      19347.179     -173.17155    
   1762000   301.60347      387.50826      18535.487      19354.526      146.70109    
   1763000   298.02177      381.4228       18552.4        19360.229     -54.38117     
   1764000   306.10715      367.17624      18555.662      19360.813     -235.03451    
   1765000   302.13661      374.08086      18551.088      19357.462     -85.224813    
   1766000   298.74685      376.53656      18543.702      19347.682      14.508637    
   1767000   305.19751      383.3366       18525.937      19345.946      109.31486    
   1768000   297.19498      370.5225       18541.026      19336.772     -83.115682    
   1769000   284.20958      370.67879      18542.775      19320.098     -73.423277    
   1770000   268.8862       377.78545      18537.614      19300.118     -44.773973    
Loop time of 3.95115 on 48 procs for 10000 steps with 481 atoms

Performance: 10.934 ns/day, 2.195 hours/ns, 2530.907 timesteps/s, 1.217 Matom-step/s
100.0% CPU use with 48 MPI tasks x 1 OpenMP threads

MPI task timing breakdown:
Section |  min time  |  avg time  |  max time  |%varavg| %total
---------------------------------------------------------------
Pair    | 0.0034134  | 0.17339    | 1.3156     |  70.6 |  4.39
Bond    | 0.0010568  | 0.20924    | 1.2688     |  73.7 |  5.30
Neigh   | 0.0066596  | 0.007062   | 0.0076219  |   0.3 |  0.18
Comm    | 1.117      | 2.8714     | 3.6198     |  46.8 | 72.67
Output  | 0.0022007  | 0.0033878  | 0.0045561  |   1.3 |  0.09
Modify  | 0.13171    | 0.56527    | 2.3252     |  97.6 | 14.31
Other   |            | 0.1214     |            |       |  3.07

Nlocal:        10.0208 ave          47 max           0 min
Histogram: 21 13 6 0 0 1 0 3 1 3
Nghost:        1818.35 ave        2348 max        1176 min
Histogram: 8 0 0 0 24 0 0 0 0 16
Neighs:              0 ave           0 max           0 min
Histogram: 48 0 0 0 0 0 0 0 0 0

Total # of neighbors = 0
Ave neighs/atom = 0
Ave special neighs/atom = 15.567568
Neighbor list builds = 12
Dangerous builds = 0
fix             myat1 all ave/time 1000 10 10000 v_zave v_zdes file simulation_data/abpot/${cpt}.dat
fix             myat1 all ave/time 1000 10 10000 v_zave v_zdes file simulation_data/abpot/30.dat
run             50000
Generated 0 of 1 mixed pair_coeff terms from geometric mixing rule
Per MPI rank memory allocation (min/avg/max) = 13.32 | 13.79 | 14.98 Mbytes
   Step          Temp          E_pair         E_mol          TotEng         Press     
   1770000   268.8862       377.78545      18537.614      19300.118     -44.773973    
   1771000   281.07314      383.89831      18507.505      19293.56       247.39816    
   1772000   280.1566       376.61558      18522.835      19300.295      19.819981    
   1773000   297.08408      370.45473      18528.913      19324.432     -301.24608    
   1774000   306.65944      377.68116      18529.513      19345.959     -135.01524    
   1775000   311.43153      378.89098      18528.808      19353.292     -19.976939    
   1776000   280.61127      388.72148      18564.247      19354.464      73.759962    
   1777000   304.44768      374.12994      18544.35       19354.081     -176.23363    
   1778000   296.3251       367.51374      18554.597      19346.089     -332.29027    
   1779000   291.87481      384.85964      18534.899      19337.37       58.346841    
   1780000   289.65745      387.19004      18519.154      19320.782      110.57623    
   1781000   288.65133      378.96504      18520.029      19311.994     -27.645119    
   1782000   283.0907       372.27292      18532.497      19309.812     -318.59942    
   1783000   290.95933      371.11906      18526.141      19313.561     -161.69663    
   1784000   306.51803      388.52877      18509.863      19336.955      304.12117    
   1785000   307.13829      380.9989       18541.01       19361.459      18.080805    
   1786000   314.31125      370.64149      18547.211      19367.565     -318.84666    
   1787000   313.67787      374.44013      18544.603      19367.85      -188.08347    
   1788000   294.82945      383.29974      18555.399      19360.537      120.29918    
   1789000   288.93297      388.05701      18546.03       19347.489      179.1367     
   1790000   295.80843      370.23054      18540.47       19333.939     -207.32133    
   1791000   293.82343      366.99022      18533.672      19321.061     -241.95667    
   1792000   282.487        376.07074      18535.343      19315.593     -19.798643    
   1793000   281.05029      389.58027      18522.857      19314.561      181.10213    
   1794000   297.98951      381.90567      18510.192      19318.458      56.382113    
   1795000   306.58431      366.16476      18518.596      19323.419     -262.74815    
   1796000   297.37509      377.60155      18528.726      19331.809      4.0663094    
   1797000   290.69043      379.91509      18543.215      19339.046      4.6030405    
   1798000   312.0869       384.5907       18514.908      19346.029      296.05468    
   1799000   318.3273       371.0359       18526.594      19353.089     -150.0889     
   1800000   325.97298      372.90861      18526.773      19366.08      -215.21437    
   1801000   311.77463      385.59446      18554.661      19386.339      114.6329     
   1802000   322.15844      387.33381      18548.447      19396.722      158.1045     
   1803000   336.43403      371.80846      18540.733      19393.907     -153.77725    
   1804000   311.81146      370.29832      18557.185      19373.619     -284.23584    
   1805000   302.50642      379.80033      18535.418      19348.041      27.933884    
   1806000   302.01779      383.61992      18519.672      19335.416      51.887127    
   1807000   301.11739      381.9399       18515.142      19327.917      1.2484138    
   1808000   292.32169      370.00784      18538.301      19326.559     -343.89911    
   1809000   301.65443      374.04339      18518.729      19324.377     -192.19525    
   1810000   296.82424      371.70352      18522.866      19319.262     -72.704678    
   1811000   288.16482      387.21023      18523.173      19322.686      185.66619    
   1812000   298.28849      384.60147      18523.478      19334.867      48.477395    
   1813000   313.92496      363.74195      18535.867      19348.77      -331.63196    
   1814000   311.33557      379.97229      18541.038      19366.466     -167.89649    
   1815000   307.77552      389.42782      18543.783      19373.572      115.61448    
   1816000   299.16595      390.3401       18551.619      19370.002      168.7319     
   1817000   312.43634      367.99746      18542.446      19357.473     -253.23403    
   1818000   301.0524       373.90377      18529.235      19333.881     -224.42346    
   1819000   283.3051       377.25172      18532.934      19315.536      94.636301    
   1820000   287.88141      387.98242      18513.638      19313.518      189.09784    
Loop time of 19.8553 on 48 procs for 50000 steps with 481 atoms

Performance: 10.879 ns/day, 2.206 hours/ns, 2518.221 timesteps/s, 1.211 Matom-step/s
100.0% CPU use with 48 MPI tasks x 1 OpenMP threads

MPI task timing breakdown:
Section |  min time  |  avg time  |  max time  |%varavg| %total
---------------------------------------------------------------
Pair    | 0.0172     | 0.8667     | 6.5814     | 157.1 |  4.37
Bond    | 0.005301   | 1.0484     | 6.4438     | 163.8 |  5.28
Neigh   | 0.031705   | 0.03352    | 0.036091   |   0.6 |  0.17
Comm    | 5.5578     | 14.55      | 18.225     | 105.7 | 73.28
Output  | 0.010989   | 0.016964   | 0.022675   |   2.9 |  0.09
Modify  | 0.66066    | 2.7289     | 11.58      | 224.5 | 13.74
Other   |            | 0.6108     |            |       |  3.08

Nlocal:        10.0208 ave          47 max           0 min
Histogram: 22 13 5 0 0 0 1 3 0 4
Nghost:        1818.35 ave        2348 max        1176 min
Histogram: 8 0 0 0 24 0 0 0 0 16
Neighs:              0 ave           0 max           0 min
Histogram: 48 0 0 0 0 0 0 0 0 0

Total # of neighbors = 0
Ave neighs/atom = 0
Ave special neighs/atom = 15.567568
Neighbor list builds = 57
Dangerous builds = 0
unfix           myat1
next            cpt
jump            SELF loop
variable        zdes equal  -15+0.60*(${cpt}-1)
variable        zdes equal  -15+0.60*(31-1)
variable        zave equal xcm(H2,z)
fix             mytth2 H2 spring tether ${k1} 2.5 2.5 ${zdes} 0
fix             mytth2 H2 spring tether 0.5 2.5 2.5 ${zdes} 0
fix             mytth2 H2 spring tether 0.5 2.5 2.5 3 0
run             10000
Generated 0 of 1 mixed pair_coeff terms from geometric mixing rule
Per MPI rank memory allocation (min/avg/max) = 13.32 | 13.79 | 14.98 Mbytes
   Step          Temp          E_pair         E_mol          TotEng         Press     
   1820000   287.88141      387.98242      18513.638      19313.518      189.09784    
   1821000   292.49607      382.30641      18515.153      19315.959      110.89899    
   1822000   298.83655      364.20057      18530.463      19322.236     -396.2688     
   1823000   292.84663      375.12995      18535.596      19329.728     -50.708144    
   1824000   290.76028      391.6731       18532.722      19340.411      404.77863    
   1825000   325.33972      387.24974      18502.389      19355.132      272.03262    
   1826000   319.27743      368.971        18537.733      19363.523     -182.19127    
   1827000   322.49553      369.30774      18535.01       19365.741     -179.7693     
   1828000   303.70227      386.76673      18536.618      19357.919      109.27251    
   1829000   298.80152      386.68273      18507.946      19322.151      234.80796    
   1830000   290.69831      375.61992      18513.891      19305.439     -150.8708     
Loop time of 4.03452 on 48 procs for 10000 steps with 481 atoms

Performance: 10.708 ns/day, 2.241 hours/ns, 2478.611 timesteps/s, 1.192 Matom-step/s
100.0% CPU use with 48 MPI tasks x 1 OpenMP threads

MPI task timing breakdown:
Section |  min time  |  avg time  |  max time  |%varavg| %total
---------------------------------------------------------------
Pair    | 0.0034026  | 0.17345    | 1.3177     |  71.8 |  4.30
Bond    | 0.0010818  | 0.20924    | 1.3659     |  74.3 |  5.19
Neigh   | 0.006135   | 0.0065654  | 0.0070907  |   0.3 |  0.16
Comm    | 1.1699     | 2.9368     | 3.7223     |  48.5 | 72.79
Output  | 0.0022539  | 0.003468   | 0.004668   |   1.3 |  0.09
Modify  | 0.13022    | 0.58309    | 2.3729     | 101.8 | 14.45
Other   |            | 0.122      |            |       |  3.02

Nlocal:        10.0208 ave          58 max           0 min
Histogram: 23 15 2 1 0 2 2 2 0 1
Nghost:        1818.35 ave        2348 max        1165 min
Histogram: 8 0 0 0 24 0 0 0 0 16
Neighs:              0 ave           0 max           0 min
Histogram: 48 0 0 0 0 0 0 0 0 0

Total # of neighbors = 0
Ave neighs/atom = 0
Ave special neighs/atom = 15.567568
Neighbor list builds = 11
Dangerous builds = 0
fix             myat1 all ave/time 1000 10 10000 v_zave v_zdes file simulation_data/abpot/${cpt}.dat
fix             myat1 all ave/time 1000 10 10000 v_zave v_zdes file simulation_data/abpot/31.dat
run             50000
Generated 0 of 1 mixed pair_coeff terms from geometric mixing rule
Per MPI rank memory allocation (min/avg/max) = 13.32 | 13.79 | 14.98 Mbytes
   Step          Temp          E_pair         E_mol          TotEng         Press     
   1830000   290.69831      375.61992      18513.891      19305.439     -150.8708     
   1831000   291.75917      369.43407      18515.757      19302.637     -302.00287    
   1832000   278.47981      381.72293      18528.202      19308.37       80.651118    
   1833000   305.15785      379.52515      18505.386      19321.528     -36.172425    
   1834000   297.59504      374.31703      18530.217      19330.33      -63.012032    
   1835000   295.7374       369.2022       18553.26       19345.6       -208.67992    
   1836000   312.84906      377.7069       18530.347      19355.675     -29.014604    
   1837000   303.43516      378.09959      18541.53       19353.781     -5.9168154    
   1838000   311.91666      382.75761      18522.904      19351.948      117.92274    
   1839000   309.31832      380.11038      18522.669      19345.348     -162.71146    
   1840000   320.91667      377.74914      18490.439      19327.352      79.790291    
   1841000   294.40819      376.71998      18514.374      19312.33      -102.38789    
   1842000   288.25348      384.35663      18509.256      19306.043      33.661707    
   1843000   304.43058      374.65582      18494.34       19304.572      6.1295575    
   1844000   289.94083      381.96022      18516.94       19313.744      20.432308    
   1845000   288.12274      380.51285      18531.546      19324.302      7.8806365    
   1846000   295.44964      376.34962      18532.357      19331.433     -33.194834    
   1847000   318.65828      380.44459      18506.261      19342.638     -51.768662    
   1848000   308.93909      377.30642      18529.164      19348.497     -123.83945    
   1849000   307.52902      371.88256      18534.784      19346.676     -86.679994    
   1850000   302.63762      381.66314      18532.514      19347.187      1.879366     
   1851000   302.11921      378.22855      18526.145      19336.643     -36.958875    
   1852000   313.18533      372.99647      18501.152      19322.25      -141.5751     
   1853000   286.59112      370.69564      18525.078      19305.825     -249.75194    
   1854000   277.65566      370.07439      18530.033      19297.374     -198.53795    
   1855000   279.90712      382.77084      18516.163      19299.422      154.5964     
   1856000   294.34895      378.84229      18513.965      19313.958      15.196118    
   1857000   301.62585      378.05466      18521.32       19330.938     -48.028869    
   1858000   296.54542      377.64609      18536.173      19338.113     -25.954031    
   1859000   287.47882      375.53752      18550.921      19337.78      -88.986517    
   1860000   316.5279       384.47606      18500.395      19337.756      156.56309    
   1861000   310.80341      375.17909      18516.758      19336.631     -96.468474    
   1862000   298.33555      377.63674      18533.359      19337.851     -95.89383     
   1863000   307.1993       376.26708      18517.287      19333.091     -28.121499    
   1864000   307.24679      374.01834      18505.71       19319.334     -61.925528    
   1865000   288.96759      381.68473      18501.888      19297.025      110.96929    
   1866000   278.44553      379.01496      18506.091      19283.503      9.1606979    
   1867000   291.61731      373.33647      18492.887      19283.466     -78.944384    
   1868000   286.51547      373.35702      18502.435      19285.736     -220.81761    
   1869000   289.94878      378.22098      18513.807      19306.883      69.657533    
   1870000   296.7572       384.11911      18517.513      19326.229      135.36031    
   1871000   299.25703      374.10504      18529.77       19332.048     -265.88337    
   1872000   305.61636      377.22674      18518.85       19333.349     -6.3797097    
   1873000   300.15966      378.83716      18526.871      19335.174     -92.442022    
   1874000   306.9237       381.25889      18510.733      19331.135      47.514161    
   1875000   292.02226      380.76032      18526.357      19324.94       66.417467    
   1876000   292.05754      373.48726      18536.368      19327.728     -242.05721    
   1877000   283.10643      382.41524      18535.104      19322.585      20.788563    
   1878000   296.63204      380.17862      18508.296      19312.892      59.964747    
   1879000   298.57757      382.19108      18503.913      19313.306      48.866124    
   1880000   286.18721      380.24338      18522.051      19311.768     -122.17851    
Loop time of 18.7605 on 48 procs for 50000 steps with 481 atoms

Performance: 11.514 ns/day, 2.084 hours/ns, 2665.179 timesteps/s, 1.282 Matom-step/s
100.0% CPU use with 48 MPI tasks x 1 OpenMP threads

MPI task timing breakdown:
Section |  min time  |  avg time  |  max time  |%varavg| %total
---------------------------------------------------------------
Pair    | 0.018082   | 0.82901    | 5.1831     | 148.2 |  4.42
Bond    | 0.0054631  | 1.0206     | 6.1238     | 158.9 |  5.44
Neigh   | 0.025302   | 0.026872   | 0.029056   |   0.6 |  0.14
Comm    | 6.6759     | 13.751     | 17.033     |  98.7 | 73.30
Output  | 0.010745   | 0.017196   | 0.023452   |   3.2 |  0.09
Modify  | 0.69043    | 2.5114     | 10.563     | 210.3 | 13.39
Other   |            | 0.6041     |            |       |  3.22

Nlocal:        10.0208 ave          50 max           0 min
Histogram: 23 12 5 0 0 1 2 1 1 3
Nghost:        1818.35 ave        2348 max        1177 min
Histogram: 8 0 0 0 24 0 0 0 0 16
Neighs:              0 ave           0 max           0 min
Histogram: 48 0 0 0 0 0 0 0 0 0

Total # of neighbors = 0
Ave neighs/atom = 0
Ave special neighs/atom = 15.567568
Neighbor list builds = 50
Dangerous builds = 0
unfix           myat1
next            cpt
jump            SELF loop
variable        zdes equal  -15+0.60*(${cpt}-1)
variable        zdes equal  -15+0.60*(32-1)
variable        zave equal xcm(H2,z)
fix             mytth2 H2 spring tether ${k1} 2.5 2.5 ${zdes} 0
fix             mytth2 H2 spring tether 0.5 2.5 2.5 ${zdes} 0
fix             mytth2 H2 spring tether 0.5 2.5 2.5 3.6 0
run             10000
Generated 0 of 1 mixed pair_coeff terms from geometric mixing rule
Per MPI rank memory allocation (min/avg/max) = 13.32 | 13.79 | 14.98 Mbytes
   Step          Temp          E_pair         E_mol          TotEng         Press     
   1880000   286.18721      380.24338      18522.051      19311.768     -122.17851    
   1881000   281.5198       376.8118       18530.597      19310.204     -155.47375    
   1882000   312.3889       384.3433       18501.737      19333.043      196.75892    
   1883000   317.10421      376.42024      18518.862      19348.991     -16.908535    
   1884000   311.00318      375.59487      18537.136      19357.711      7.403166     
   1885000   311.48548      368.73925      18546.676      19361.086     -180.7333     
   1886000   308.73186      380.17688      18532.994      19354.901      59.509692    
   1887000   281.46734      385.19931      18546.601      19334.521      181.41327    
   1888000   287.11141      378.92794      18520.061      19309.785     -39.245104    
   1889000   288.98734      370.57932      18514.979      19299.038     -63.124197    
   1890000   283.21663      374.86158      18517.869      19297.954      8.2337431    
Loop time of 3.6 on 48 procs for 10000 steps with 481 atoms

Performance: 12.000 ns/day, 2.000 hours/ns, 2777.777 timesteps/s, 1.336 Matom-step/s
100.0% CPU use with 48 MPI tasks x 1 OpenMP threads

MPI task timing breakdown:
Section |  min time  |  avg time  |  max time  |%varavg| %total
---------------------------------------------------------------
Pair    | 0.0035485  | 0.16149    | 1.037      |  63.5 |  4.49
Bond    | 0.0010648  | 0.20109    | 1.1075     |  68.9 |  5.59
Neigh   | 0.0034175  | 0.003678   | 0.0040577  |   0.3 |  0.10
Comm    | 1.3993     | 2.6329     | 3.2803     |  41.0 | 73.14
Output  | 0.0020836  | 0.0032784  | 0.0044523  |   1.3 |  0.09
Modify  | 0.11953    | 0.47734    | 1.9667     |  87.1 | 13.26
Other   |            | 0.1202     |            |       |  3.34

Nlocal:        10.0208 ave          50 max           0 min
Histogram: 23 12 5 0 1 0 1 3 0 3
Nghost:        1818.35 ave        2348 max        1174 min
Histogram: 8 0 0 0 24 0 0 0 0 16
Neighs:              0 ave           0 max           0 min
Histogram: 48 0 0 0 0 0 0 0 0 0

Total # of neighbors = 0
Ave neighs/atom = 0
Ave special neighs/atom = 15.567568
Neighbor list builds = 8
Dangerous builds = 0
fix             myat1 all ave/time 1000 10 10000 v_zave v_zdes file simulation_data/abpot/${cpt}.dat
fix             myat1 all ave/time 1000 10 10000 v_zave v_zdes file simulation_data/abpot/32.dat
run             50000
Generated 0 of 1 mixed pair_coeff terms from geometric mixing rule
Per MPI rank memory allocation (min/avg/max) = 13.32 | 13.79 | 14.98 Mbytes
   Step          Temp          E_pair         E_mol          TotEng         Press     
   1890000   283.21663      374.86158      18517.869      19297.954      8.2337431    
   1891000   291.94434      379.56904      18504.041      19301.321     -41.202626    
   1892000   293.50394      380.31357      18509.116      19309.372      158.25428    
   1893000   301.44229      378.00094      18513.295      19322.596     -49.022536    
   1894000   311.31079      375.40428      18517.762      19338.586     -104.83013    
   1895000   308.60519      378.80334      18525.851      19346.203      68.054615    
   1896000   297.54703      374.67042      18545.442      19345.839     -122.53344    
   1897000   305.53101      379.29332      18527.639      19344.083      2.0406191    
   1898000   294.95041      381.12456      18541.679      19344.815     -11.348299    
   1899000   304.58662      380.49418      18525.2        19341.494      40.820139    
   1900000   296.61452      369.78567      18542.095      19336.274     -323.1191     
   1901000   303.14945      371.88583      18513.547      19319.176     -74.108842    
   1902000   277.11388      378.89834      18505.489      19280.878      53.38923     
   1903000   269.19535      381.5494       18503.477      19270.188     -37.649339    
   1904000   288.87264      371.4424       18490.312      19275.07      -55.626464    
   1905000   293.01013      378.81484      18496.773      19294.823      46.227638    
   1906000   310.96915      376.02688      18492.573      19313.531     -32.391468    
   1907000   304.75093      381.66651      18509.609      19327.309      170.16786    
   1908000   304.64249      382.76488      18521.13       19339.774      142.13254    
   1909000   298.08346      372.24004      18547.679      19346.414     -62.721266    
   1910000   304.3201       378.85592      18535.494      19349.768      41.116181    
   1911000   309.09342      382.39856      18525.042      19349.688      58.341463    
   1912000   307.86527      383.36958      18512.857      19336.717      173.47731    
   1913000   301.15809      377.29368      18513.428      19321.615     -26.889867    
   1914000   286.21577      377.23983      18516.891      19303.645     -263.25967    
   1915000   275.2748       379.6051       18520.612      19294.077     -96.375921    
   1916000   290.38646      379.35961      18500.917      19295.759     -35.118927    
   1917000   286.0477       384.12186      18507.431      19300.827      111.35508    
   1918000   294.58231      373.71568      18513.046      19308.247     -110.23653    
   1919000   299.75632      370.77145      18521.431      19321.09      -273.42004    
   1920000   286.49019      385.87457      18528.768      19324.549      19.39314     
   1921000   287.57746      381.60692      18532.549      19325.619     -73.858127    
   1922000   307.44122      382.36217      18509.559      19331.804     -0.21001659   
   1923000   317.09256      373.74888      18501.236      19328.677     -123.99374    
   1924000   312.1554       379.93194      18505.651      19332.211     -79.472212    
   1925000   303.57833      382.33355      18514.15       19330.84       86.20153     
   1926000   297.26721      385.62437      18518.686      19329.637      76.643778    
   1927000   291.98703      366.23412      18538.879      19322.885     -235.94309    
   1928000   289.11057      373.69148      18528.565      19315.913     -174.31728    
   1929000   291.22633      379.22354      18512.108      19308.015      54.935035    
   1930000   292.78008      388.79343      18494.966      19302.666      108.37643    
   1931000   298.33045      380.63756      18499.945      19307.43      -15.584095    
   1932000   276.58506      370.46988      18543.61       19309.815     -207.76153    
   1933000   296.88345      377.27769      18521.561      19323.616      7.9599987    
   1934000   317.74261      387.76341      18497.733      19340.119      199.5735     
   1935000   295.94475      384.2923       18546.949      19354.675      19.601964    
   1936000   324.50323      378.344        18522.698      19365.338     -157.16663    
   1937000   311.12664      368.92518      18541.452      19355.533     -229.48605    
   1938000   294.199        387.09806      18534.025      19342.06       4.6612605    
   1939000   304.98512      386.6218       18500.645      19323.636      222.37822    
   1940000   292.24404      372.88507      18520.614      19311.639     -200.36354    
Loop time of 18.0497 on 48 procs for 50000 steps with 481 atoms

Performance: 11.967 ns/day, 2.006 hours/ns, 2770.130 timesteps/s, 1.332 Matom-step/s
100.0% CPU use with 48 MPI tasks x 1 OpenMP threads

MPI task timing breakdown:
Section |  min time  |  avg time  |  max time  |%varavg| %total
---------------------------------------------------------------
Pair    | 0.017146   | 0.81152    | 5.3415     | 142.3 |  4.50
Bond    | 0.0052214  | 1.0049     | 6.147      | 155.0 |  5.57
Neigh   | 0.030283   | 0.032736   | 0.035939   |   0.8 |  0.18
Comm    | 6.1448     | 13.287     | 16.396     |  93.2 | 73.61
Output  | 0.01058    | 0.01692    | 0.022822   |   3.0 |  0.09
Modify  | 0.60931    | 2.2936     | 9.9908     | 200.3 | 12.71
Other   |            | 0.603      |            |       |  3.34

Nlocal:        10.0208 ave          51 max           0 min
Histogram: 24 12 4 0 0 1 3 1 1 2
Nghost:        1818.35 ave        2346 max        1172 min
Histogram: 8 0 0 0 24 0 0 0 0 16
Neighs:              0 ave           0 max           0 min
Histogram: 48 0 0 0 0 0 0 0 0 0

Total # of neighbors = 0
Ave neighs/atom = 0
Ave special neighs/atom = 15.567568
Neighbor list builds = 71
Dangerous builds = 0
unfix           myat1
next            cpt
jump            SELF loop
variable        zdes equal  -15+0.60*(${cpt}-1)
variable        zdes equal  -15+0.60*(33-1)
variable        zave equal xcm(H2,z)
fix             mytth2 H2 spring tether ${k1} 2.5 2.5 ${zdes} 0
fix             mytth2 H2 spring tether 0.5 2.5 2.5 ${zdes} 0
fix             mytth2 H2 spring tether 0.5 2.5 2.5 4.2 0
run             10000
Generated 0 of 1 mixed pair_coeff terms from geometric mixing rule
Per MPI rank memory allocation (min/avg/max) = 13.32 | 13.79 | 14.98 Mbytes
   Step          Temp          E_pair         E_mol          TotEng         Press     
   1940000   292.24404      372.88507      18520.614      19311.639     -200.36354    
   1941000   296.58183      368.62771      18519.264      19312.238     -255.36562    
   1942000   302.89258      374.47965      18503.914      19311.769     -22.495853    
   1943000   281.26568      390.97816      18521.569      19314.979      279.5973     
   1944000   311.03272      381.18228      18496.879      19323.083      225.56204    
   1945000   286.70033      368.77126      18552.131      19331.109     -309.09342    
   1946000   312.66819      366.92184      18524.778      19339.062     -274.7425     
   1947000   314.25223      386.36704      18509.525      19345.521      192.33501    
   1948000   309.39077      384.70943      18528.505      19355.887      168.30614    
   1949000   308.8071       377.94579      18548.197      19367.981     -191.21995    
   1950000   297.81298      371.84175      18571.645      19369.594     -285.62864    
Loop time of 3.73 on 48 procs for 10000 steps with 481 atoms

Performance: 11.582 ns/day, 2.072 hours/ns, 2680.969 timesteps/s, 1.290 Matom-step/s
100.0% CPU use with 48 MPI tasks x 1 OpenMP threads

MPI task timing breakdown:
Section |  min time  |  avg time  |  max time  |%varavg| %total
---------------------------------------------------------------
Pair    | 0.0034694  | 0.16168    | 1.0784     |  65.1 |  4.33
Bond    | 0.0010528  | 0.19998    | 1.3595     |  71.3 |  5.36
Neigh   | 0.0075745  | 0.0085856  | 0.0093846  |   0.4 |  0.23
Comm    | 1.1255     | 2.7472     | 3.4002     |  43.8 | 73.65
Output  | 0.0021907  | 0.0034194  | 0.004591   |   1.3 |  0.09
Modify  | 0.1165     | 0.48964    | 2.1353     |  94.6 | 13.13
Other   |            | 0.1195     |            |       |  3.20

Nlocal:        10.0208 ave          54 max           0 min
Histogram: 25 11 4 0 1 0 3 2 1 1
Nghost:        1818.35 ave        2347 max        1169 min
Histogram: 8 0 0 0 24 0 0 0 0 16
Neighs:              0 ave           0 max           0 min
Histogram: 48 0 0 0 0 0 0 0 0 0

Total # of neighbors = 0
Ave neighs/atom = 0
Ave special neighs/atom = 15.567568
Neighbor list builds = 17
Dangerous builds = 0
fix             myat1 all ave/time 1000 10 10000 v_zave v_zdes file simulation_data/abpot/${cpt}.dat
fix             myat1 all ave/time 1000 10 10000 v_zave v_zdes file simulation_data/abpot/33.dat
run             50000
Generated 0 of 1 mixed pair_coeff terms from geometric mixing rule
Per MPI rank memory allocation (min/avg/max) = 13.32 | 13.79 | 14.98 Mbytes
   Step          Temp          E_pair         E_mol          TotEng         Press     
   1950000   297.81298      371.84175      18571.645      19369.594     -285.62864    
   1951000   326.20986      378.65871      18516.833      19362.229     -91.852704    
   1952000   298.91268      391.61864      18512.767      19332.066      340.9903     
   1953000   308.05771      382.41481      18490.216      19313.397      49.336566    
   1954000   290.91443      375.60899      18514.962      19306.808     -310.63157    
   1955000   283.9544       379.8911       18519.677      19305.847      69.992774    
   1956000   299.25421      382.77274      18503.279      19314.222      166.8257     
   1957000   298.6192       385.13448      18511.677      19324.072      98.59115     
   1958000   306.13496      376.23538      18526.325      19340.575      2.8194204    
   1959000   320.39855      367.69308      18529.252      19355.368     -288.57457    
   1960000   307.902        377.84043      18536.994      19355.378     -135.10685    
   1961000   313.29412      385.9382       18517.355      19351.551      127.48751    
   1962000   323.1696       381.94051      18504.693      19349.021      132.88594    
   1963000   324.20491      369.0462       18512.929      19345.844     -186.20258    
   1964000   292.07041      371.24033      18550.029      19339.16      -173.97422    
   1965000   299.24463      392.03032      18515.234      19335.421      228.37372    
   1966000   296.21439      388.93801      18513.146      19325.905      192.51554    
   1967000   301.76981      378.12925      18514.196      19324.094     -32.217699    
   1968000   289.3527       367.52031      18540.945      19322.468     -406.56562    
   1969000   291.05848      386.0352       18516.577      19319.055      147.48921    
   1970000   296.84316      384.96603      18511.944      19321.63       185.76671    
   1971000   290.45189      380.66708      18528.347      19324.59       18.517507    
   1972000   304.43444      372.06639      18524.088      19331.735     -35.608767    
   1973000   300.46902      374.8917       18538.977      19343.776     -104.87059    
   1974000   304.40413      384.93481      18537.332      19357.805      93.413124    
   1975000   302.20554      379.02843      18548.771      19360.192     -23.633904    
   1976000   302.30034      376.97304      18552.573      19362.074      33.925114    
   1977000   310.46063      372.31731      18536.765      19353.286     -201.05702    
   1978000   306.65621      376.62902      18522.017      19337.406     -66.562694    
   1979000   303.75441      379.94398      18501.884      19316.436      162.98463    
   1980000   292.9849       377.61983      18509.449      19306.269      20.641142    
   1981000   300.88393      370.49011      18507.566      19308.558     -47.90879     
   1982000   283.85692      369.27285      18532.468      19307.881     -290.74221    
   1983000   305.33154      386.5094       18489.216      19312.591      251.44501    
   1984000   293.00207      390.43598      18519.972      19329.632      171.06113    
   1985000   309.12692      368.7424       18524          19335.038     -155.83698    
   1986000   287.76468      370.61415      18559.971      19342.316     -283.34771    
   1987000   303.86671      375.64276      18530.839      19341.25       113.26916    
   1988000   292.40623      394.77229      18530.976      19344.12       375.9353     
   1989000   302.91575      373.46164      18535.655      19342.525     -110.3027     
   1990000   291.12447      366.39276      18557.759      19340.689     -307.1263     
   1991000   308.50305      374.46676      18526.713      19342.582     -55.209787    
   1992000   309.63087      384.85851      18511.109      19338.984      217.7726     
   1993000   300.3448       382.1679       18524.966      19336.864      83.269645    
   1994000   289.95876      370.33843      18544.319      19329.527     -209.71149    
   1995000   288.49314      368.46321      18538.955      19320.191     -197.09757    
   1996000   291.29432      381.14901      18511.135      19309.064      86.913305    
   1997000   296.04495      386.66301      18492.128      19302.368      262.91366    
   1998000   294.92327      380.02897      18504.968      19306.97      -51.46956     
   1999000   293.97761      377.19033      18520.123      19317.933      39.054861    
   2000000   299.68242      369.73753      18539.746      19338.266     -250.44467    
Loop time of 18.2608 on 48 procs for 50000 steps with 481 atoms

Performance: 11.829 ns/day, 2.029 hours/ns, 2738.106 timesteps/s, 1.317 Matom-step/s
100.0% CPU use with 48 MPI tasks x 1 OpenMP threads

MPI task timing breakdown:
Section |  min time  |  avg time  |  max time  |%varavg| %total
---------------------------------------------------------------
Pair    | 0.017295   | 0.81187    | 5.3078     | 143.3 |  4.45
Bond    | 0.0053402  | 1.001      | 6.2837     | 156.7 |  5.48
Neigh   | 0.035502   | 0.039816   | 0.04382    |   1.0 |  0.22
Comm    | 6.0261     | 13.435     | 16.655     |  95.2 | 73.57
Output  | 0.010638   | 0.016674   | 0.022411   |   2.9 |  0.09
Modify  | 0.62614    | 2.3571     | 10.274     | 204.0 | 12.91
Other   |            | 0.5994     |            |       |  3.28

Nlocal:        10.0208 ave          49 max           0 min
Histogram: 23 9 7 1 0 2 2 0 1 3
Nghost:        1818.35 ave        2348 max        1176 min
Histogram: 8 0 0 0 24 0 0 0 0 16
Neighs:              0 ave           0 max           0 min
Histogram: 48 0 0 0 0 0 0 0 0 0

Total # of neighbors = 0
Ave neighs/atom = 0
Ave special neighs/atom = 15.567568
Neighbor list builds = 84
Dangerous builds = 0
unfix           myat1
next            cpt
jump            SELF loop
variable        zdes equal  -15+0.60*(${cpt}-1)
variable        zdes equal  -15+0.60*(34-1)
variable        zave equal xcm(H2,z)
fix             mytth2 H2 spring tether ${k1} 2.5 2.5 ${zdes} 0
fix             mytth2 H2 spring tether 0.5 2.5 2.5 ${zdes} 0
fix             mytth2 H2 spring tether 0.5 2.5 2.5 4.8 0
run             10000
Generated 0 of 1 mixed pair_coeff terms from geometric mixing rule
Per MPI rank memory allocation (min/avg/max) = 13.32 | 13.79 | 14.98 Mbytes
   Step          Temp          E_pair         E_mol          TotEng         Press     
   2000000   299.68242      369.73753      18539.746      19338.266     -250.44467    
   2001000   314.91723      377.05305      18526.135      19353.768      38.476204    
   2002000   302.17577      394.8242       18535.64       19362.814      252.82998    
   2003000   320.89729      374.43844      18524.36       19357.935     -189.68087    
   2004000   300.66789      369.34445      18556.001      19355.538     -238.28099    
   2005000   308.80202      379.53876      18525.521      19346.891      25.080969    
   2006000   299.52279      380.04695      18524.639      19333.239      8.8132588    
   2007000   288.83498      381.38551      18530.647      19325.294      27.907021    
   2008000   296.82713      370.59787      18525.296      19320.59      -277.57605    
   2009000   310.90138      375.6892       18500.879      19321.403      109.28728    
   2010000   298.24415      384.04074      18518.466      19329.231     -41.506159    
Loop time of 3.83331 on 48 procs for 10000 steps with 481 atoms

Performance: 11.270 ns/day, 2.130 hours/ns, 2608.713 timesteps/s, 1.255 Matom-step/s
100.0% CPU use with 48 MPI tasks x 1 OpenMP threads

MPI task timing breakdown:
Section |  min time  |  avg time  |  max time  |%varavg| %total
---------------------------------------------------------------
Pair    | 0.0034341  | 0.16449    | 1.0558     |  63.9 |  4.29
Bond    | 0.001086   | 0.20103    | 1.3035     |  70.0 |  5.24
Neigh   | 0.0067444  | 0.0075716  | 0.0083066  |   0.4 |  0.20
Comm    | 1.327      | 2.8473     | 3.5209     |  45.4 | 74.28
Output  | 0.0021797  | 0.003377   | 0.0045571  |   1.3 |  0.09
Modify  | 0.12652    | 0.48873    | 2.3161     | 102.0 | 12.75
Other   |            | 0.1208     |            |       |  3.15

Nlocal:        10.0208 ave          57 max           0 min
Histogram: 23 16 1 0 2 2 0 2 1 1
Nghost:        1818.35 ave        2347 max        1166 min
Histogram: 8 0 0 0 24 0 0 0 0 16
Neighs:              0 ave           0 max           0 min
Histogram: 48 0 0 0 0 0 0 0 0 0

Total # of neighbors = 0
Ave neighs/atom = 0
Ave special neighs/atom = 15.567568
Neighbor list builds = 16
Dangerous builds = 0
fix             myat1 all ave/time 1000 10 10000 v_zave v_zdes file simulation_data/abpot/${cpt}.dat
fix             myat1 all ave/time 1000 10 10000 v_zave v_zdes file simulation_data/abpot/34.dat
run             50000
Generated 0 of 1 mixed pair_coeff terms from geometric mixing rule
Per MPI rank memory allocation (min/avg/max) = 13.32 | 13.79 | 14.98 Mbytes
   Step          Temp          E_pair         E_mol          TotEng         Press     
   2010000   298.24415      384.04074      18518.466      19329.231     -41.506159    
   2011000   303.22058      377.40348      18519.911      19331.159     -210.42942    
   2012000   295.89683      374.61686      18531.888      19329.871     -115.46471    
   2013000   293.44373      373.88268      18544.201      19337.94      -165.68231    
   2014000   301.20448      377.01127      18535.528      19343.5       -83.116962    
   2015000   297.34244      381.93845      18544.859      19352.232      33.883893    
   2016000   288.91362      373.71436      18572.76       19359.848     -216.12879    
   2017000   309.31237      379.12078      18540.402      19362.083     -145.68411    
   2018000   302.04008      376.68585      18551.883      19360.724     -74.050829    
   2019000   299.42308      380.14485      18541.882      19350.438      92.930787    
   2020000   291.43199      375.52115      18540.324      19332.823     -121.07412    
   2021000   311.44904      371.93126      18499.165      19316.714     -239.7684     
   2022000   294.14099      376.55312      18509.138      19306.544      21.609934    
   2023000   287.8798       381.0776       18516.381      19309.354      0.50178064   
   2024000   290.79043      376.41017      18521.639      19314.109     -13.733662    
   2025000   288.73676      378.88306      18547.574      19339.578     -210.71609    
   2026000   312.08593      390.22443      18525.045      19361.799     -52.763501    
   2027000   318.61663      395.75596      18530.01       19381.64       21.600097    
   2028000   332.14361      396.32457      18523.108      19394.66      -105.11722    
   2029000   338.72422      395.69467      18507.238      19387.575      10.578838    
   2030000   334.22047      382.36348      18504.72       19365.282      61.272127    
   2031000   317.23767      391.8084       18511.155      19356.863     -131.86489    
   2032000   303.28478      397.33672      18496.434      19327.707     -3.8421574    
   2033000   287.12009      396.36951      18490.171      19297.349      46.260111    
   2034000   269.3084       391.08873      18514.593      19291.005     -65.230165    
   2035000   283.88289      393.24979      18517.858      19317.284     -42.216511    
   2036000   303.18775      400.17828      18516.651      19350.627      116.92835    
   2037000   316.55689      391.84119      18518.363      19363.13      -136.17944    
   2038000   304.75975      391.68756      18522.336      19350.07      -92.871767    
   2039000   303.34103      389.71336      18512.062      19335.792      23.410782    
   2040000   303.42723      394.90762      18504.024      19333.072      47.103346    
   2041000   298.9667       389.14036      18506.639      19323.538     -72.949076    
   2042000   298.78588      392.05694      18485.848      19305.404     -32.326127    
   2043000   270.73691      387.05683      18521.893      19296.317     -144.46721    
   2044000   281.72043      405.26657      18503.025      19311.374      276.18237    
   2045000   314.16348      398.41647      18486.338      19334.256      112.84891    
   2046000   314.26494      382.62727      18518.537      19350.811     -277.1118     
   2047000   305.23522      385.85724      18522.265      19344.849     -206.19758    
   2048000   298.48342      378.28334      18515.012      19320.362     -109.56728    
   2049000   289.35289      403.01339      18499.548      19316.565      242.96082    
   2050000   291.13201      396.79034      18504.109      19317.448     -1.3159998    
   2051000   292.68177      384.42949      18506.404      19309.599     -198.98743    
   2052000   280.7404       391.44538      18504.322      19297.447     -73.453452    
   2053000   291.48071      402.20004      18473.074      19292.322      243.24705    
   2054000   285.57401      397.06759      18507.338      19313.002      7.3817545    
   2055000   304.45217      390.37233      18519.003      19344.982     -98.975074    
   2056000   305.21455      384.52429      18541.199      19362.421     -315.5734     
   2057000   329.72399      398.25149      18487.628      19357.645      174.73471    
   2058000   315.66192      388.40886      18501.769      19341.824      146.45423    
   2059000   298.47565      389.76549      18515.495      19332.317     -108.68161    
   2060000   290.30752      389.47266      18516.81       19321.651     -217.0207     
Loop time of 18.4542 on 48 procs for 50000 steps with 481 atoms

Performance: 11.705 ns/day, 2.050 hours/ns, 2709.414 timesteps/s, 1.303 Matom-step/s
100.0% CPU use with 48 MPI tasks x 1 OpenMP threads

MPI task timing breakdown:
Section |  min time  |  avg time  |  max time  |%varavg| %total
---------------------------------------------------------------
Pair    | 0.016931   | 0.8267     | 4.5629     | 138.7 |  4.48
Bond    | 0.0054065  | 1.0023     | 6.1857     | 155.2 |  5.43
Neigh   | 0.13234    | 0.14851    | 0.16313    |   2.0 |  0.80
Comm    | 6.3572     | 13.532     | 16.841     |  96.6 | 73.33
Output  | 0.01054    | 0.01657    | 0.022281   |   2.9 |  0.09
Modify  | 0.62951    | 2.334      | 10.567     | 212.4 | 12.65
Other   |            | 0.5944     |            |       |  3.22

Nlocal:        10.0208 ave          48 max           0 min
Histogram: 22 15 3 0 0 1 0 3 3 1
Nghost:        1818.35 ave        2347 max        1181 min
Histogram: 8 0 0 0 24 0 0 0 0 16
Neighs:              0 ave           0 max           0 min
Histogram: 48 0 0 0 0 0 0 0 0 0

Total # of neighbors = 0
Ave neighs/atom = 0
Ave special neighs/atom = 15.567568
Neighbor list builds = 316
Dangerous builds = 0
unfix           myat1
next            cpt
jump            SELF loop
variable        zdes equal  -15+0.60*(${cpt}-1)
variable        zdes equal  -15+0.60*(35-1)
variable        zave equal xcm(H2,z)
fix             mytth2 H2 spring tether ${k1} 2.5 2.5 ${zdes} 0
fix             mytth2 H2 spring tether 0.5 2.5 2.5 ${zdes} 0
fix             mytth2 H2 spring tether 0.5 2.5 2.5 5.4 0
run             10000
Generated 0 of 1 mixed pair_coeff terms from geometric mixing rule
Per MPI rank memory allocation (min/avg/max) = 13.32 | 13.79 | 14.98 Mbytes
   Step          Temp          E_pair         E_mol          TotEng         Press     
   2060000   290.30752      389.47266      18516.81       19321.651     -217.0207     
   2061000   289.3906       395.77338      18504.069      19313.899     -126.47606    
   2062000   293.00386      399.93642      18491.034      19310.198      161.77649    
   2063000   288.02889      395.04159      18507.654      19314.804     -136.68247    
   2064000   299.57255      383.45794      18528.125      19340.208     -352.46574    
   2065000   306.90442      396.71445      18534.604      19370.434     -177.67143    
   2066000   313.2695       399.31787      18528.742      19376.283      38.229177    
   2067000   322.22493      396.5539       18508.23       19365.82      -11.440364    
   2068000   308.087        384.9415       18524.64       19350.389     -81.09948     
   2069000   295.09302      384.83252      18532.21       19339.258     -142.12637    
   2070000   299.69098      392.95493      18507.34       19329.089      78.793855    
Loop time of 4.01319 on 48 procs for 10000 steps with 481 atoms

Performance: 10.764 ns/day, 2.230 hours/ns, 2491.781 timesteps/s, 1.199 Matom-step/s
100.0% CPU use with 48 MPI tasks x 1 OpenMP threads

MPI task timing breakdown:
Section |  min time  |  avg time  |  max time  |%varavg| %total
---------------------------------------------------------------
Pair    | 0.0034143  | 0.17207    | 1.272      |  69.1 |  4.29
Bond    | 0.0010654  | 0.20412    | 1.346      |  72.0 |  5.09
Neigh   | 0.026847   | 0.029428   | 0.031776   |   0.8 |  0.73
Comm    | 1.3524     | 2.9346     | 3.6777     |  47.9 | 73.12
Output  | 0.002216   | 0.0034159  | 0.0045903  |   1.3 |  0.09
Modify  | 0.13418    | 0.55035    | 2.4644     | 104.1 | 13.71
Other   |            | 0.1192     |            |       |  2.97

Nlocal:        10.0208 ave          49 max           0 min
Histogram: 23 8 9 0 0 1 1 2 3 1
Nghost:        1818.35 ave        2348 max        1174 min
Histogram: 8 0 0 0 24 0 0 0 0 16
Neighs:              0 ave           0 max           0 min
Histogram: 48 0 0 0 0 0 0 0 0 0

Total # of neighbors = 0
Ave neighs/atom = 0
Ave special neighs/atom = 15.567568
Neighbor list builds = 58
Dangerous builds = 0
fix             myat1 all ave/time 1000 10 10000 v_zave v_zdes file simulation_data/abpot/${cpt}.dat
fix             myat1 all ave/time 1000 10 10000 v_zave v_zdes file simulation_data/abpot/35.dat
run             50000
Generated 0 of 1 mixed pair_coeff terms from geometric mixing rule
Per MPI rank memory allocation (min/avg/max) = 13.32 | 13.79 | 14.98 Mbytes
   Step          Temp          E_pair         E_mol          TotEng         Press     
   2070000   299.69098      392.95493      18507.34       19329.089      78.793855    
   2071000   295.94784      386.94579      18506.458      19316.843      180.14101    
   2072000   289.89879      379.96265      18515.521      19310.267     -182.0204     
   2073000   296.82532      383.03534      18501.46       19309.189      56.297555    
   2074000   296.41813      385.39633      18509.762      19319.27      -33.960731    
   2075000   307.44278      390.42216      18510.073      19340.381      118.05439    
   2076000   315.43375      379.27423      18534.655      19365.248     -118.25328    
   2077000   317.85819      375.58478      18536.327      19366.7       -109.04757    
   2078000   321.55379      383.17709      18520.72       19363.973      74.968241    
   2079000   312.51915      374.83729      18532.833      19354.819     -83.072764    
   2080000   305.80398      377.19412      18533.476      19348.211     -86.851438    
   2081000   290.36448      378.91238      18544.372      19338.734      4.6158828    
   2082000   300.01727      374.03743      18522.398      19325.697     -65.380556    
   2083000   303.28149      370.32199      18514.157      19318.411     -161.08662    
   2084000   293.36115      385.26753      18517.621      19322.627      234.92504    
   2085000   288.99492      373.56717      18542.576      19329.634     -60.291729    
   2086000   290.66514      374.75869      18542.084      19332.723     -179.61251    
   2087000   304.13113      373.9659       18523.442      19332.555     -143.33346    
   2088000   292.2405       378.46296      18529.976      19326.573     -64.611111    
   2089000   296.04004      380.99083      18516.724      19321.286      19.732621    
   2090000   304.78299      373.39649      18514.989      19324.466     -82.542572    
   2091000   287.2623       377.92577      18541.385      19330.323     -93.578712    
   2092000   297.39205      374.53708      18537.454      19337.496     -50.888667    
   2093000   288.44779      375.35336      18559.313      19347.374     -19.320181    
   2094000   313.85374      373.91676      18533.905      19356.88      -38.895773    
   2095000   309.63492      382.30338      18532.541      19357.867      69.894222    
   2096000   315.39241      376.83534      18527.27       19355.365     -62.540995    
   2097000   296.59008      373.8107       18545.511      19343.679     -169.63567    
   2098000   291.95266      368.76359      18538.77       19325.257     -226.58572    
   2099000   295.74106      375.75401      18512.646      19311.543      16.673072    
   2100000   306.95154      378.02395      18486.535      19303.742      199.27057    
   2101000   295.66573      371.81021      18511.315      19306.161     -124.74381    
   2102000   301.55402      373.26908      18510.026      19314.756     -280.32603    
   2103000   315.57456      367.96561      18509.541      19329.027     -170.25315    
   2104000   300.16321      383.12714      18524.787      19337.384      44.638427    
   2105000   309.20197      382.27819      18527.287      19351.968      99.778049    
   2106000   309.45328      368.46567      18550.544      19361.772     -264.8258     
   2107000   313.5463       378.93384      18536.667      19364.219     -184.64888    
   2108000   299.14908      373.88697      18542.832      19344.739     -168.77289    
   2109000   290.93514      386.67914      18510.07       19313.016      214.65541    
   2110000   298.67636      375.92938      18500.489      19303.761      69.724959    
   2111000   282.7267       368.71429      18525.578      19298.815     -187.10405    
   2112000   280.47416      379.55091      18521.537      19302.387     -47.624034    
   2113000   293.51347      385.4487       18509.251      19314.655      136.01635    
   2114000   305.49916      376.82306      18517.104      19331.032      57.436652    
   2115000   299.66108      374.47134      18537.527      19340.75      -165.97862    
   2116000   312.42124      368.01207      18529.138      19344.159     -220.72058    
   2117000   290.62213      388.19667      18543.436      19347.451      215.60285    
   2118000   308.58654      378.13022      18528.016      19347.669     -6.641712     
   2119000   305.76371      378.45788      18521.985      19337.926      11.344987    
   2120000   298.52521      372.02615      18519.326      19318.479     -265.18966    
Loop time of 17.9093 on 48 procs for 50000 steps with 481 atoms

Performance: 12.061 ns/day, 1.990 hours/ns, 2791.838 timesteps/s, 1.343 Matom-step/s
100.0% CPU use with 48 MPI tasks x 1 OpenMP threads

MPI task timing breakdown:
Section |  min time  |  avg time  |  max time  |%varavg| %total
---------------------------------------------------------------
Pair    | 0.017105   | 0.78357    | 5.0759     | 143.1 |  4.38
Bond    | 0.0052101  | 0.9722     | 5.1095     | 154.7 |  5.43
Neigh   | 0.066234   | 0.074803   | 0.080599   |   1.3 |  0.42
Comm    | 6.4017     | 13.049     | 16.275     |  96.3 | 72.86
Output  | 0.0099408  | 0.015714   | 0.021245   |   2.9 |  0.09
Modify  | 0.6823     | 2.3869     | 9.9875     | 205.6 | 13.33
Other   |            | 0.6274     |            |       |  3.50

Nlocal:        10.0208 ave          49 max           0 min
Histogram: 21 12 7 0 0 1 1 3 1 2
Nghost:        1818.35 ave        2347 max        1174 min
Histogram: 8 0 0 0 24 0 0 0 0 16
Neighs:              0 ave           0 max           0 min
Histogram: 48 0 0 0 0 0 0 0 0 0

Total # of neighbors = 0
Ave neighs/atom = 0
Ave special neighs/atom = 15.567568
Neighbor list builds = 154
Dangerous builds = 0
unfix           myat1
next            cpt
jump            SELF loop
variable        zdes equal  -15+0.60*(${cpt}-1)
variable        zdes equal  -15+0.60*(36-1)
variable        zave equal xcm(H2,z)
fix             mytth2 H2 spring tether ${k1} 2.5 2.5 ${zdes} 0
fix             mytth2 H2 spring tether 0.5 2.5 2.5 ${zdes} 0
fix             mytth2 H2 spring tether 0.5 2.5 2.5 6 0
run             10000
Generated 0 of 1 mixed pair_coeff terms from geometric mixing rule
Per MPI rank memory allocation (min/avg/max) = 13.32 | 13.79 | 14.98 Mbytes
   Step          Temp          E_pair         E_mol          TotEng         Press     
   2120000   298.52521      372.02615      18519.326      19318.479     -265.18966    
   2121000   287.5123       380.41984      18506.883      19298.672      20.303541    
   2122000   294.01724      385.14466      18486.597      19292.418      262.34331    
   2123000   283.21998      374.71749      18518.056      19298.001      53.056877    
   2124000   298.94293      374.61987      18509.47       19311.814     -158.2675     
   2125000   301.38274      373.84768      18515.784      19320.847      65.080416    
   2126000   276.93996      381.41682      18547.868      19325.527     -83.364972    
   2127000   297.81256      377.77874      18524.958      19328.843      18.731057    
   2128000   290.67859      374.26321      18543.762      19333.925     -89.332601    
   2129000   307.87228      374.54238      18523.849      19338.891     -42.646517    
   2130000   293.12781      376.9685       18535.23       19331.602     -47.463012    
Loop time of 3.07435 on 48 procs for 10000 steps with 481 atoms

Performance: 14.052 ns/day, 1.708 hours/ns, 3252.724 timesteps/s, 1.565 Matom-step/s
100.0% CPU use with 48 MPI tasks x 1 OpenMP threads

MPI task timing breakdown:
Section |  min time  |  avg time  |  max time  |%varavg| %total
---------------------------------------------------------------
Pair    | 0.003385   | 0.15253    | 0.87652    |  59.2 |  4.96
Bond    | 0.001043   | 0.18944    | 0.9781     |  66.1 |  6.16
Neigh   | 0.0074218  | 0.008955   | 0.010141   |   0.7 |  0.29
Comm    | 1.0204     | 2.2392     | 2.7643     |  36.4 | 72.83
Output  | 0.0018329  | 0.0029928  | 0.0041261  |   1.3 |  0.10
Modify  | 0.10853    | 0.36096    | 1.5498     |  72.7 | 11.74
Other   |            | 0.1203     |            |       |  3.91

Nlocal:        10.0208 ave          52 max           0 min
Histogram: 26 8 6 0 0 2 2 1 2 1
Nghost:        1818.35 ave        2345 max        1171 min
Histogram: 8 0 0 0 24 0 0 0 0 16
Neighs:              0 ave           0 max           0 min
Histogram: 48 0 0 0 0 0 0 0 0 0

Total # of neighbors = 0
Ave neighs/atom = 0
Ave special neighs/atom = 15.567568
Neighbor list builds = 25
Dangerous builds = 0
fix             myat1 all ave/time 1000 10 10000 v_zave v_zdes file simulation_data/abpot/${cpt}.dat
fix             myat1 all ave/time 1000 10 10000 v_zave v_zdes file simulation_data/abpot/36.dat
run             50000
Generated 0 of 1 mixed pair_coeff terms from geometric mixing rule
Per MPI rank memory allocation (min/avg/max) = 13.32 | 13.79 | 14.98 Mbytes
   Step          Temp          E_pair         E_mol          TotEng         Press     
   2130000   293.12781      376.9685       18535.23       19331.602     -47.463012    
   2131000   292.10904      375.91624      18531.102      19324.965      23.608552    
   2132000   295.2517       374.48219      18526.658      19323.583     -193.33866    
   2133000   299.33841      379.69068      18515.49       19323.471      72.643446    
   2134000   286.92889      375.80984      18531.323      19317.667     -123.00204    
   2135000   279.80878      375.50505      18528.189      19304.041     -33.127267    
   2136000   285.02215      375.84001      18504.317      19287.964     -58.049534    
   2137000   285.37975      380.73227      18492.936      19281.986      194.27628    
   2138000   289.79291      379.12571      18501.43       19295.189     -63.170807    
   2139000   292.02134      375.36182      18525.6        19318.783     -109.66769    
   2140000   289.05632      371.98076      18546.622      19332.182     -70.386661    
   2141000   307.7411       384.3641       18514.35       19339.026      59.320526    
   2142000   302.95693      377.4565       18528.349      19339.273      34.57799     
   2143000   298.37083      376.77398      18536.298      19339.978     -62.869639    
   2144000   302.38037      374.57067      18542.365      19349.578     -263.49809    
   2145000   300.7844       373.35538      18549.423      19353.137     -207.53005    
   2146000   316.99178      377.88505      18509.448      19340.881      40.597863    
   2147000   294.59078      378.06765      18513.849      19313.414      52.77312     
   2148000   283.23585      373.66653      18517.477      19296.395     -163.69754    
   2149000   298.35448      366.67294      18501.02       19294.575     -264.42608    
   2150000   280.7149       382.95705      18515.917      19300.518      33.627416    
   2151000   305.45071      381.69353      18494.623      19313.352      117.4729     
   2152000   312.2237       373.63424      18508.985      19329.345     -133.20653    
   2153000   300.95995      373.86719      18534.67       19339.147     -76.27285     
   2154000   298.11352      372.04627      18546.67       19345.254     -121.44652    
   2155000   309.11224      386.12099      18515.924      19344.319      140.58248    
   2156000   312.30308      380.53083      18517.543      19344.914      71.89897     
   2157000   304.50674      370.924        18530.067      19336.676     -192.30801    
   2158000   299.00425      368.96881      18533.366      19330.146     -94.947469    
   2159000   301.9231       380.41436      18514.521      19326.923      22.269286    
   2160000   303.67324      378.0507       18507.259      19319.802      53.584195    
   2161000   305.98314      375.07598      18497.919      19310.792     -64.117572    
   2162000   306.24424      376.12059      18486.19       19300.482     -46.924963    
   2163000   293.91467      374.36556      18488.03       19282.925      9.9473173    
   2164000   272.6068       381.87325      18493.96       19265.876     -5.0652952    
   2165000   279.05433      379.86159      18482.845      19261.975     -79.946385    
   2166000   275.72752      373.83173      18500.505      19268.844     -139.19738    
   2167000   293.3873       378.18827      18492.598      19290.562     -56.125568    
   2168000   285.18958      375.03898      18521.889      19304.974     -116.88538    
   2169000   288.64746      380.32101      18519.852      19313.167      118.58111    
   2170000   305.50662      373.56409      18514.746      19325.426     -165.40317    
   2171000   294.58611      383.10288      18535.484      19340.077      119.15611    
   2172000   297.59548      377.38846      18537.264      19340.449     -22.727477    
   2173000   296.43347      372.95967      18533.15       19330.243     -53.447634    
   2174000   293.09944      383.66697      18518.017      19321.047      189.78381    
   2175000   298.27565      375.50797      18509.724      19312.002     -116.67213    
   2176000   294.97302      375.26899      18500.62       19297.933      26.662309    
   2177000   296.83509      378.2949       18484.348      19287.352      33.563508    
   2178000   294.71833      377.36087      18485.558      19284.599      7.291892     
   2179000   288.4598       381.30251      18494.211      19288.239      233.07146    
   2180000   290.90414      370.20494      18522.326      19308.753     -308.42936    
Loop time of 16.0214 on 48 procs for 50000 steps with 481 atoms

Performance: 13.482 ns/day, 1.780 hours/ns, 3120.819 timesteps/s, 1.501 Matom-step/s
100.0% CPU use with 48 MPI tasks x 1 OpenMP threads

MPI task timing breakdown:
Section |  min time  |  avg time  |  max time  |%varavg| %total
---------------------------------------------------------------
Pair    | 0.016878   | 0.75045    | 4.8768     | 135.3 |  4.68
Bond    | 0.0052162  | 0.94031    | 4.6567     | 148.2 |  5.87
Neigh   | 0.03205    | 0.035969   | 0.039951   |   1.1 |  0.22
Comm    | 5.7787     | 11.655     | 14.402     |  85.7 | 72.75
Output  | 0.0087879  | 0.014392   | 0.019809   |   2.9 |  0.09
Modify  | 0.62652    | 2.0197     | 8.6226     | 177.0 | 12.61
Other   |            | 0.6055     |            |       |  3.78

Nlocal:        10.0208 ave          50 max           0 min
Histogram: 23 10 7 0 0 3 0 1 1 3
Nghost:        1818.35 ave        2347 max        1173 min
Histogram: 8 0 0 0 24 0 0 0 0 16
Neighs:              0 ave           0 max           0 min
Histogram: 48 0 0 0 0 0 0 0 0 0

Total # of neighbors = 0
Ave neighs/atom = 0
Ave special neighs/atom = 15.567568
Neighbor list builds = 96
Dangerous builds = 0
unfix           myat1
next            cpt
jump            SELF loop
variable        zdes equal  -15+0.60*(${cpt}-1)
variable        zdes equal  -15+0.60*(37-1)
variable        zave equal xcm(H2,z)
fix             mytth2 H2 spring tether ${k1} 2.5 2.5 ${zdes} 0
fix             mytth2 H2 spring tether 0.5 2.5 2.5 ${zdes} 0
fix             mytth2 H2 spring tether 0.5 2.5 2.5 6.6 0
run             10000
Generated 0 of 1 mixed pair_coeff terms from geometric mixing rule
Per MPI rank memory allocation (min/avg/max) = 13.32 | 13.79 | 14.98 Mbytes
   Step          Temp          E_pair         E_mol          TotEng         Press     
   2180000   290.90414      370.20494      18522.326      19308.753     -308.42936    
   2181000   300.62782      370.03138      18536.792      19336.958     -225.7189     
   2182000   313.44004      390.3297       18509.267      19348.063      322.22968    
   2183000   317.101        381.23948      18515.352      19350.296      209.63807    
   2184000   316.3374       370.52051      18526.742      19349.874     -225.60732    
   2185000   308.25468      370.84737      18525.708      19337.603     -194.94841    
   2186000   303.9185       379.67927      18504.689      19319.211      31.395603    
   2187000   302.55757      386.28073      18488.646      19307.822      177.16245    
   2188000   295.38058      377.63573      18501.912      19302.175      17.626082    
   2189000   285.81612      371.18993      18519.603      19299.735     -200.32571    
   2190000   298.68068      369.51124      18511.322      19308.182     -190.23862    
Loop time of 3.20678 on 48 procs for 10000 steps with 481 atoms

Performance: 13.471 ns/day, 1.782 hours/ns, 3118.398 timesteps/s, 1.500 Matom-step/s
100.0% CPU use with 48 MPI tasks x 1 OpenMP threads

MPI task timing breakdown:
Section |  min time  |  avg time  |  max time  |%varavg| %total
---------------------------------------------------------------
Pair    | 0.0032715  | 0.14567    | 0.98687    |  61.0 |  4.54
Bond    | 0.0010321  | 0.18548    | 0.90272    |  66.6 |  5.78
Neigh   | 0.0055192  | 0.0062265  | 0.0068594  |   0.4 |  0.19
Comm    | 1.1807     | 2.3548     | 2.9349     |  40.0 | 73.43
Output  | 0.0017206  | 0.0028431  | 0.0039451  |   1.3 |  0.09
Modify  | 0.10707    | 0.40154    | 1.7355     |  85.6 | 12.52
Other   |            | 0.1102     |            |       |  3.44

Nlocal:        10.0208 ave          51 max           0 min
Histogram: 23 13 4 0 0 2 1 2 1 2
Nghost:        1818.35 ave        2346 max        1173 min
Histogram: 8 0 0 0 24 0 0 0 0 16
Neighs:              0 ave           0 max           0 min
Histogram: 48 0 0 0 0 0 0 0 0 0

Total # of neighbors = 0
Ave neighs/atom = 0
Ave special neighs/atom = 15.567568
Neighbor list builds = 16
Dangerous builds = 0
fix             myat1 all ave/time 1000 10 10000 v_zave v_zdes file simulation_data/abpot/${cpt}.dat
fix             myat1 all ave/time 1000 10 10000 v_zave v_zdes file simulation_data/abpot/37.dat
run             50000
Generated 0 of 1 mixed pair_coeff terms from geometric mixing rule
Per MPI rank memory allocation (min/avg/max) = 13.32 | 13.79 | 14.98 Mbytes
   Step          Temp          E_pair         E_mol          TotEng         Press     
   2190000   298.68068      369.51124      18511.322      19308.182     -190.23862    
   2191000   317.41856      379.99521      18487.923      19322.078      52.780289    
   2192000   303.15808      380.35481      18531.67       19345.78       3.0680993    
   2193000   313.7889       383.24619      18537.64       19369.852      160.09332    
   2194000   328.07414      367.2326       18537.691      19374.328     -177.22996    
   2195000   290.57359      369.93043      18575.222      19360.902     -203.71205    
   2196000   297.28927      387.5044       18533.79       19346.653      236.19451    
   2197000   292.82684      380.98625      18533.365      19333.324      75.466596    
   2198000   307.71791      371.06063      18510.222      19321.562     -169.85001    
   2199000   291.17009      366.70841      18532.051      19315.363     -235.85424    
   2200000   289.90209      372.38397      18524.401      19311.574     -132.70875    
   2201000   288.5987       391.95332      18507.05       19311.927      337.86487    
   2202000   291.74528      373.53025      18527.052      19318.008     -148.08547    
   2203000   310.99096      370.49632      18521.073      19336.532     -176.10281    
   2204000   303.55227      373.66801      18552.312      19360.3       -3.9910469    
   2205000   313.51923      375.19644      18547.134      19370.91       36.072237    
   2206000   309.11651      391.48758      18534.645      19368.413      285.89154    
   2207000   313.45183      371.88819      18537.333      19357.704     -282.73179    
   2208000   296.85637      365.42195      18552.048      19342.209     -171.04817    
   2209000   304.16588      376.224        18521.183      19332.604      7.9973973    
   2210000   287.01863      377.37727      18537.974      19326.015      9.630594     
   2211000   305.67292      375.7711       18514.136      19327.26      -31.239776    
   2212000   299.052        373.67353      18519.601      19321.154     -68.017947    
   2213000   290.4443       370.63648      18533.166      19319.367     -233.94441    
   2214000   304.38164      380.0969       18508.279      19323.882      57.026362    
   2215000   306.19865      377.03546      18513.838      19328.979      105.66625    
   2216000   315.75638      375.01316      18518.865      19345.659     -61.284212    
   2217000   313.08284      367.38764      18551.116      19366.459     -189.35843    
   2218000   319.41775      378.46616      18539.564      19375.049     -31.91481     
   2219000   309.71916      380.16528      18550.26       19373.568      102.02001    
   2220000   322.72293      378.41556      18524.706      19364.87       103.09517    
   2221000   297.80261      369.64867      18544.46       19340.201     -190.19005    
   2222000   290.36361      365.57615      18545.935      19326.961     -95.141099    
   2223000   302.31878      380.12425      18507.998      19320.676      275.65547    
   2224000   306.20331      383.53908      18500.411      19322.063      154.61241    
   2225000   307.30077      373.37296      18512.549      19325.605     -108.39139    
   2226000   312.41062      371.11203      18513.446      19331.552     -120.2792     
   2227000   308.18835      374.73856      18520.155      19335.846      21.158798    
   2228000   311.8881       378.79425      18516.822      19341.863      15.306722    
   2229000   319.56012      381.4436       18515.037      19353.704      158.07841    
   2230000   316.41823      372.10472      18541.503      19366.335     -211.88442    
   2231000   330.81837      375.74509      18527.647      19376.724     -107.15445    
   2232000   315.27426      376.39321      18549.148      19376.632     -67.846572    
   2233000   313.3379       375.80218      18537.255      19361.377     -68.313277    
   2234000   289.55654      376.07409      18544.994      19335.363     -139.36916    
   2235000   299.9069       371.42668      18517.737      19318.267     -141.49834    
   2236000   280.18623      381.02597      18531.285      19313.198      2.3316971    
   2237000   302.64006      379.09603      18505.999      19318.109      110.95427    
   2238000   288.43495      374.0936       18535.307      19322.09      -56.51841     
   2239000   287.65259      375.39621      18542.872      19329.838     -126.61761    
   2240000   306.5026       381.23689      18520.799      19340.576      170.49938    
Loop time of 15.6752 on 48 procs for 50000 steps with 481 atoms

Performance: 13.780 ns/day, 1.742 hours/ns, 3189.749 timesteps/s, 1.534 Matom-step/s
100.0% CPU use with 48 MPI tasks x 1 OpenMP threads

MPI task timing breakdown:
Section |  min time  |  avg time  |  max time  |%varavg| %total
---------------------------------------------------------------
Pair    | 0.016917   | 0.72903    | 4.9356     | 137.0 |  4.65
Bond    | 0.0051873  | 0.92732    | 4.3848     | 148.1 |  5.92
Neigh   | 0.027569   | 0.031337   | 0.03457    |   1.1 |  0.20
Comm    | 5.4398     | 11.452     | 14.179     |  87.2 | 73.06
Output  | 0.0083024  | 0.013834   | 0.019196   |   2.9 |  0.09
Modify  | 0.55595    | 1.9734     | 8.35       | 181.5 | 12.59
Other   |            | 0.5488     |            |       |  3.50

Nlocal:        10.0208 ave          50 max           0 min
Histogram: 24 10 4 2 0 0 2 3 2 1
Nghost:        1818.35 ave        2348 max        1174 min
Histogram: 8 0 0 0 24 0 0 0 0 16
Neighs:              0 ave           0 max           0 min
Histogram: 48 0 0 0 0 0 0 0 0 0

Total # of neighbors = 0
Ave neighs/atom = 0
Ave special neighs/atom = 15.567568
Neighbor list builds = 87
Dangerous builds = 0
unfix           myat1
next            cpt
jump            SELF loop
variable        zdes equal  -15+0.60*(${cpt}-1)
variable        zdes equal  -15+0.60*(38-1)
variable        zave equal xcm(H2,z)
fix             mytth2 H2 spring tether ${k1} 2.5 2.5 ${zdes} 0
fix             mytth2 H2 spring tether 0.5 2.5 2.5 ${zdes} 0
fix             mytth2 H2 spring tether 0.5 2.5 2.5 7.2 0
run             10000
Generated 0 of 1 mixed pair_coeff terms from geometric mixing rule
Per MPI rank memory allocation (min/avg/max) = 13.32 | 13.79 | 14.98 Mbytes
   Step          Temp          E_pair         E_mol          TotEng         Press     
   2240000   306.5026       381.23689      18520.799      19340.576      170.49938    
   2241000   302.32776      384.84047      18536.916      19354.324      107.27206    
   2242000   313.22666      370.19127      18555.35       19373.703     -151.12904    
   2243000   332.59962      371.13034      18538.106      19385.117     -97.357576    
   2244000   307.34224      376.16264      18559.136      19375.041     -9.4464468    
   2245000   313.45107      386.83921      18515.526      19350.847      207.10093    
   2246000   299.75797      373.06002      18526.771      19328.721     -73.96217     
   2247000   292.13678      380.82251      18523.9        19322.709      25.134176    
   2248000   290.98212      370.29843      18537.97       19324.602     -242.75501    
   2249000   295.22585      375.40044      18527.072      19324.878     -14.122006    
   2250000   295.56994      379.77941      18517.981      19320.658      174.2936     
Loop time of 3.05861 on 48 procs for 10000 steps with 481 atoms

Performance: 14.124 ns/day, 1.699 hours/ns, 3269.454 timesteps/s, 1.573 Matom-step/s
100.0% CPU use with 48 MPI tasks x 1 OpenMP threads

MPI task timing breakdown:
Section |  min time  |  avg time  |  max time  |%varavg| %total
---------------------------------------------------------------
Pair    | 0.0032723  | 0.14554    | 1.023      |  61.3 |  4.76
Bond    | 0.0010338  | 0.1854     | 0.88837    |  66.2 |  6.06
Neigh   | 0.0033453  | 0.0038269  | 0.0042731  |   0.4 |  0.13
Comm    | 0.93229    | 2.2325     | 2.7584     |  37.9 | 72.99
Output  | 0.0016896  | 0.0028099  | 0.0039178  |   1.3 |  0.09
Modify  | 0.10433    | 0.37703    | 1.5652     |  76.4 | 12.33
Other   |            | 0.1115     |            |       |  3.64

Nlocal:        10.0208 ave          46 max           0 min
Histogram: 22 12 6 0 0 0 1 0 6 1
Nghost:        1818.35 ave        2346 max        1182 min
Histogram: 8 0 0 0 24 0 0 0 0 16
Neighs:              0 ave           0 max           0 min
Histogram: 48 0 0 0 0 0 0 0 0 0

Total # of neighbors = 0
Ave neighs/atom = 0
Ave special neighs/atom = 15.567568
Neighbor list builds = 11
Dangerous builds = 0
fix             myat1 all ave/time 1000 10 10000 v_zave v_zdes file simulation_data/abpot/${cpt}.dat
fix             myat1 all ave/time 1000 10 10000 v_zave v_zdes file simulation_data/abpot/38.dat
run             50000
Generated 0 of 1 mixed pair_coeff terms from geometric mixing rule
Per MPI rank memory allocation (min/avg/max) = 13.32 | 13.79 | 14.98 Mbytes
   Step          Temp          E_pair         E_mol          TotEng         Press     
   2250000   295.56994      379.77941      18517.981      19320.658      174.2936     
   2251000   294.6461       376.27984      18521.653      19319.51      -90.019172    
   2252000   286.27946      374.82488      18537.434      19321.865     -29.552763    
   2253000   294.33927      359.88688      18544.429      19325.453     -383.70937    
   2254000   305.8272       378.34808      18519.098      19335.02      -69.578091    
   2255000   302.97203      387.9957       18526.934      19348.419      210.28301    
   2256000   311.63676      373.1318       18542.752      19361.771     -138.76453    
   2257000   316.96921      372.20413      18543.511      19369.231     -111.01685    
   2258000   303.75817      366.63465      18562.455      19363.704     -284.12139    
   2259000   306.21237      374.52908      18531.757      19344.411     -33.988099    
   2260000   286.98043      391.4319       18516.429      19318.469      356.72231    
   2261000   301.34302      370.66335      18505.811      19307.633     -80.061369    
   2262000   296.7599       366.57795      18517.781      19308.96      -301.40735    
   2263000   297.09524      372.44856      18515.415      19312.944      55.221854    
   2264000   287.67024      372.68984      18531.867      19316.152      13.799364    
   2265000   300.54331      382.94324      18511.785      19324.742      159.91299    
   2266000   293.19834      376.51218      18542.996      19339.013      38.738441    
   2267000   319.66228      371.99643      18526.539      19355.905     -25.372014    
   2268000   325.85298      379.30807      18520.397      19365.932      36.984987    
   2269000   310.15404      372.68814      18551.26       19367.713      50.35206     
   2270000   311.54399      373.47405      18530.46       19349.688     -100.81181    
   2271000   294.00981      372.00106      18519.959      19312.626     -8.4040631    
   2272000   284.35243      381.88546      18512.017      19300.751      115.19735    
   2273000   289.69876      373.0498       18513.707      19301.255     -112.94491    
   2274000   282.28402      368.87135      18533.012      19305.772     -249.92071    
   2275000   302.70396      372.52392      18513.504      19319.133     -48.848426    
   2276000   287.90923      372.50906      18544.033      19328.48      -119.77848    
   2277000   303.06058      378.90705      18525.524      19338.047      56.657206    
   2278000   306.27707      376.18111      18529.592      19343.991     -90.581269    
   2279000   298.60473      363.61165      18555.613      19346.465     -427.59253    
   2280000   308.92619      380.4464       18525.467      19347.922      67.642722    
   2281000   312.37701      381.24681      18511.949      19340.141      70.000349    
   2282000   296.40848      378.67944      18517.011      19319.788     -8.4649478    
   2283000   291.30817      373.71222      18510.087      19300.6       -123.00053    
   2284000   275.08224      368.99984      18527.918      19290.503     -226.80782    
   2285000   284.31378      376.36001      18509.767      19292.92       67.597094    
   2286000   288.51739      381.15344      18512.607      19306.568      126.53109    
   2287000   301.30453      377.76155      18516.909      19325.773      195.92149    
   2288000   314.18305      363.94823      18522.819      19336.297     -190.64334    
   2289000   303.95018      373.39981      18528.558      19336.847     -21.64869     
   2290000   313.05342      387.61595      18501.917      19337.446      230.41576    
   2291000   298.14497      376.24921      18533.902      19336.733     -41.440116    
   2292000   302.77649      373.73006      18530.101      19337.04      -41.064103    
   2293000   294.74766      362.50277      18546.639      19330.863     -339.69398    
   2294000   285.78294      376.9633       18534.825      19320.684     -56.048978    
   2295000   271.12048      385.57827      18525.25       19298.744      236.00692    
   2296000   283.65993      370.60551      18500.77       19277.233     -104.91515    
   2297000   280.36402      367.66363      18500.856      19269.662     -254.44916    
   2298000   274.96865      374.66175      18506.63       19274.714     -66.19789     
   2299000   277.57807      377.644        18509.596      19284.395      59.271771    
   2300000   295.69462      376.43801      18495.871      19295.385      6.9052476    
Loop time of 15.6696 on 48 procs for 50000 steps with 481 atoms

Performance: 13.785 ns/day, 1.741 hours/ns, 3190.902 timesteps/s, 1.535 Matom-step/s
100.0% CPU use with 48 MPI tasks x 1 OpenMP threads

MPI task timing breakdown:
Section |  min time  |  avg time  |  max time  |%varavg| %total
---------------------------------------------------------------
Pair    | 0.016194   | 0.72746    | 4.7559     | 135.9 |  4.64
Bond    | 0.0051987  | 0.92774    | 4.6673     | 148.8 |  5.92
Neigh   | 0.019512   | 0.021941   | 0.024187   |   0.9 |  0.14
Comm    | 5.6033     | 11.467     | 14.227     |  87.3 | 73.18
Output  | 0.0083131  | 0.013791   | 0.019086   |   2.9 |  0.09
Modify  | 0.54836    | 1.9607     | 8.3793     | 182.3 | 12.51
Other   |            | 0.5513     |            |       |  3.52

Nlocal:        10.0208 ave          48 max           0 min
Histogram: 23 11 6 0 0 0 2 3 1 2
Nghost:        1818.35 ave        2346 max        1175 min
Histogram: 8 0 0 0 24 0 0 0 0 16
Neighs:              0 ave           0 max           0 min
Histogram: 48 0 0 0 0 0 0 0 0 0

Total # of neighbors = 0
Ave neighs/atom = 0
Ave special neighs/atom = 15.567568
Neighbor list builds = 58
Dangerous builds = 0
unfix           myat1
next            cpt
jump            SELF loop
variable        zdes equal  -15+0.60*(${cpt}-1)
variable        zdes equal  -15+0.60*(39-1)
variable        zave equal xcm(H2,z)
fix             mytth2 H2 spring tether ${k1} 2.5 2.5 ${zdes} 0
fix             mytth2 H2 spring tether 0.5 2.5 2.5 ${zdes} 0
fix             mytth2 H2 spring tether 0.5 2.5 2.5 7.8 0
run             10000
Generated 0 of 1 mixed pair_coeff terms from geometric mixing rule
Per MPI rank memory allocation (min/avg/max) = 13.32 | 13.8 | 14.98 Mbytes
   Step          Temp          E_pair         E_mol          TotEng         Press     
   2300000   295.69462      376.43801      18495.871      19295.385      6.9052476    
   2301000   286.15184      375.3199       18523.322      19308.065     -27.215977    
   2302000   286.94544      367.02255      18537.588      19315.169     -263.69392    
   2303000   310.64126      374.55024      18502.53       19321.542      9.1908836    
   2304000   296.59207      380.62894      18521.933      19326.923      150.44918    
   2305000   302.96638      376.45396      18523.037      19332.972     -16.440275    
   2306000   309.39517      373.07992      18526.44       19342.199     -20.252113    
   2307000   305.59989      376.85087      18530.034      19344.133      2.2146758    
   2308000   302.19593      378.71371      18528.035      19339.127      130.4502     
   2309000   289.26948      379.52794      18524.064      19317.476      130.60235    
   2310000   292.51603      372.82787      18505.751      19297.107     -125.73243    
Loop time of 3.22928 on 48 procs for 10000 steps with 481 atoms

Performance: 13.378 ns/day, 1.794 hours/ns, 3096.662 timesteps/s, 1.489 Matom-step/s
100.0% CPU use with 48 MPI tasks x 1 OpenMP threads

MPI task timing breakdown:
Section |  min time  |  avg time  |  max time  |%varavg| %total
---------------------------------------------------------------
Pair    | 0.0033192  | 0.14548    | 0.88917    |  61.0 |  4.51
Bond    | 0.0010364  | 0.18585    | 0.99518    |  66.9 |  5.76
Neigh   | 0.0055098  | 0.0061887  | 0.0068121  |   0.4 |  0.19
Comm    | 1.1433     | 2.3684     | 2.9365     |  40.3 | 73.34
Output  | 0.0016383  | 0.002714   | 0.0037843  |   1.3 |  0.08
Modify  | 0.10976    | 0.41059    | 1.7733     |  86.2 | 12.71
Other   |            | 0.11       |            |       |  3.41

Nlocal:        10.0208 ave          49 max           0 min
Histogram: 24 10 5 1 1 0 0 2 3 2
Nghost:        1818.35 ave        2346 max        1176 min
Histogram: 8 0 0 0 24 0 0 0 0 16
Neighs:              0 ave           0 max           0 min
Histogram: 48 0 0 0 0 0 0 0 0 0

Total # of neighbors = 0
Ave neighs/atom = 0
Ave special neighs/atom = 15.567568
Neighbor list builds = 16
Dangerous builds = 0
fix             myat1 all ave/time 1000 10 10000 v_zave v_zdes file simulation_data/abpot/${cpt}.dat
fix             myat1 all ave/time 1000 10 10000 v_zave v_zdes file simulation_data/abpot/39.dat
run             50000
Generated 0 of 1 mixed pair_coeff terms from geometric mixing rule
Per MPI rank memory allocation (min/avg/max) = 13.32 | 13.8 | 14.98 Mbytes
   Step          Temp          E_pair         E_mol          TotEng         Press     
   2310000   292.51603      372.82787      18505.751      19297.107     -125.73243    
   2311000   282.05503      371.00907      18515.041      19289.611     -157.75476    
   2312000   288.46323      378.27734      18501.692      19292.699      150.94732    
   2313000   300.71055      375.8402       18497.951      19304.045     -30.777724    
   2314000   292.92714      373.3176       18523.715      19316.149     -2.6369778    
   2315000   296.09252      369.52773      18535.91       19329.084     -131.47797    
   2316000   306.70088      376.31243      18523.433      19338.569      1.1588379    
   2317000   319.16707      380.0695       18504.221      19340.951      96.090404    
   2318000   308.08102      376.39376      18519.603      19336.796      88.284666    
   2319000   307.81997      373.82022      18524.633      19338.879     -124.14595    
   2320000   306.6055       370.55498      18521.646      19330.888     -144.98578    
   2321000   298.4647       378.55534      18521.114      19326.709      81.394506    
   2322000   311.15146      375.49389      18501.46       19322.146      49.579988    
   2323000   310.69788      370.68002      18501.209      19316.432     -115.34219    
   2324000   305.92243      375.27666      18501.675      19314.662     -26.639954    
   2325000   293.00137      376.93963      18511.781      19307.944      39.160885    
   2326000   288.49489      376.9443       18513.602      19303.322     -167.15759    
   2327000   303.14419      373.38054      18488.484      19295.6        4.1447966    
   2328000   291.52927      371.56029      18503.041      19291.718     -78.773631    
   2329000   289.63449      372.14183      18504.744      19291.292     -145.01206    
   2330000   297.88054      374.68421      18497.179      19298.067     -25.621214    
   2331000   295.1127       374.00921      18515.784      19312.037     -36.69728     
   2332000   317.58608      367.78939      18510.643      19332.831     -132.68801    
   2333000   305.30232      375.20404      18529.391      19341.418     -69.875357    
   2334000   326.90536      387.10199      18489.047      19343.882      241.04114    
   2335000   314.34787      379.92944      18510.056      19339.751     -81.085641    
   2336000   316.40427      374.14848      18504.407      19331.264      8.1614955    
   2337000   293.13886      368.69558      18522.843      19310.958     -181.81558    
   2338000   281.68935      369.68191      18517.993      19290.713     -89.258426    
   2339000   276.80577      386.30619      18500.557      19282.914      92.155914    
   2340000   284.62515      377.66457      18504.884      19289.787      93.318146    
   2341000   292.58555      365.56461      18514.763      19298.956     -303.27243    
   2342000   298.15064      366.68551      18512.647      19305.923     -301.75654    
   2343000   294.83483      382.78279      18507.67       19312.299      118.00521    
   2344000   299.12281      387.56788      18503.846      19319.396      99.044881    
   2345000   297.12698      378.96863      18519.439      19323.533     -22.890825    
   2346000   299.02337      366.41462      18538.908      19333.161     -240.96563    
   2347000   306.84394      371.87315      18531.606      19342.508      41.107184    
   2348000   305.17484      385.23656      18524.52       19346.398      220.25877    
   2349000   297.94636      376.21073      18540.624      19343.133     -10.902789    
   2350000   302.97417      371.04116      18530.47       19335.003     -207.91313    
   2351000   297.70274      373.04829      18519.973      19318.971     -62.591       
   2352000   309.90897      376.5807       18490.792      19310.787     -5.621488     
   2353000   300.19967      378.85868      18496.502      19304.883      41.466342    
   2354000   285.32596      374.86894      18519.285      19302.395     -1.9402448    
   2355000   292.121        372.97626      18515.353      19306.292     -136.8855     
   2356000   302.68589      375.26195      18504.358      19312.699     -5.6362462    
   2357000   299.06461      385.72889      18514.687      19328.314      126.1364     
   2358000   311.41752      374.73291      18529.055      19349.36      -125.38031    
   2359000   319.40419      374.97003      18528.401      19360.371     -135.84819    
   2360000   295.86299      382.81681      18553.665      19359.8       -71.751551    
Loop time of 16.2223 on 48 procs for 50000 steps with 481 atoms

Performance: 13.315 ns/day, 1.802 hours/ns, 3082.181 timesteps/s, 1.483 Matom-step/s
100.0% CPU use with 48 MPI tasks x 1 OpenMP threads

MPI task timing breakdown:
Section |  min time  |  avg time  |  max time  |%varavg| %total
---------------------------------------------------------------
Pair    | 0.016601   | 0.72661    | 4.3993     | 135.1 |  4.48
Bond    | 0.0052173  | 0.92818    | 4.7843     | 149.5 |  5.72
Neigh   | 0.024718   | 0.027634   | 0.030417   |   0.9 |  0.17
Comm    | 5.9149     | 11.917     | 14.825     |  89.5 | 73.46
Output  | 0.0083329  | 0.013715   | 0.018956   |   2.9 |  0.08
Modify  | 0.52917    | 2.0588     | 8.9297     | 192.7 | 12.69
Other   |            | 0.5508     |            |       |  3.40

Nlocal:        10.0208 ave          44 max           0 min
Histogram: 21 11 8 0 0 0 0 2 2 4
Nghost:        1818.35 ave        2345 max        1182 min
Histogram: 8 0 0 0 24 0 0 0 0 16
Neighs:              0 ave           0 max           0 min
Histogram: 48 0 0 0 0 0 0 0 0 0

Total # of neighbors = 0
Ave neighs/atom = 0
Ave special neighs/atom = 15.567568
Neighbor list builds = 70
Dangerous builds = 0
unfix           myat1
next            cpt
jump            SELF loop
variable        zdes equal  -15+0.60*(${cpt}-1)
variable        zdes equal  -15+0.60*(40-1)
variable        zave equal xcm(H2,z)
fix             mytth2 H2 spring tether ${k1} 2.5 2.5 ${zdes} 0
fix             mytth2 H2 spring tether 0.5 2.5 2.5 ${zdes} 0
fix             mytth2 H2 spring tether 0.5 2.5 2.5 8.4 0
run             10000
Generated 0 of 1 mixed pair_coeff terms from geometric mixing rule
Per MPI rank memory allocation (min/avg/max) = 13.32 | 13.8 | 14.98 Mbytes
   Step          Temp          E_pair         E_mol          TotEng         Press     
   2360000   295.86299      382.81681      18553.665      19359.8       -71.751551    
   2361000   314.02553      375.95552      18524.581      19349.841      12.848156    
   2362000   305.63527      371.37166      18524.315      19332.986     -86.139642    
   2363000   297.75418      372.94474      18520.208      19319.176     -160.55409    
   2364000   288.26946      374.30514      18527.309      19314.067     -77.502503    
   2365000   295.47931      386.59367      18504.238      19313.6        309.43863    
   2366000   314.89701      377.83724      18488.915      19317.304      103.40349    
   2367000   283.16208      366.61469      18544.682      19316.442     -255.07108    
   2368000   304.47167      369.84329      18507.173      19312.651     -167.20486    
   2369000   297.43117      376.42482      18509.295      19311.281      2.733342     
   2370000   302.39087      385.26363      18492.653      19310.574      249.39845    
Loop time of 3.24596 on 48 procs for 10000 steps with 481 atoms

Performance: 13.309 ns/day, 1.803 hours/ns, 3080.750 timesteps/s, 1.482 Matom-step/s
100.0% CPU use with 48 MPI tasks x 1 OpenMP threads

MPI task timing breakdown:
Section |  min time  |  avg time  |  max time  |%varavg| %total
---------------------------------------------------------------
Pair    | 0.0033265  | 0.14549    | 0.90053    |  60.5 |  4.48
Bond    | 0.0010392  | 0.18571    | 0.99936    |  67.5 |  5.72
Neigh   | 0.0053554  | 0.0059926  | 0.006574   |   0.4 |  0.18
Comm    | 1.1178     | 2.3755     | 2.9616     |  39.9 | 73.18
Output  | 0.0017144  | 0.0028152  | 0.0039114  |   1.3 |  0.09
Modify  | 0.1086     | 0.41994    | 1.7955     |  85.2 | 12.94
Other   |            | 0.1105     |            |       |  3.40

Nlocal:        10.0208 ave          55 max           0 min
Histogram: 25 11 4 0 2 0 2 0 2 2
Nghost:        1818.35 ave        2346 max        1177 min
Histogram: 8 0 0 0 24 0 0 0 0 16
Neighs:              0 ave           0 max           0 min
Histogram: 48 0 0 0 0 0 0 0 0 0

Total # of neighbors = 0
Ave neighs/atom = 0
Ave special neighs/atom = 15.567568
Neighbor list builds = 15
Dangerous builds = 0
fix             myat1 all ave/time 1000 10 10000 v_zave v_zdes file simulation_data/abpot/${cpt}.dat
fix             myat1 all ave/time 1000 10 10000 v_zave v_zdes file simulation_data/abpot/40.dat
run             50000
Generated 0 of 1 mixed pair_coeff terms from geometric mixing rule
Per MPI rank memory allocation (min/avg/max) = 13.32 | 13.8 | 14.98 Mbytes
   Step          Temp          E_pair         E_mol          TotEng         Press     
   2370000   302.39087      385.26363      18492.653      19310.574      249.39845    
   2371000   311.64295      370.56146      18502.447      19318.903     -209.52569    
   2372000   317.25908      365.35559      18511.696      19330.982     -216.63999    
   2373000   299.63953      377.39268      18533.276      19339.39      -67.00855     
   2374000   316.72526      383.32319      18506.699      19343.189      218.8779     
   2375000   319.55366      378.56095      18502.622      19338.397      27.909864    
   2376000   302.11737      366.62136      18525.241      19324.128     -266.57098    
   2377000   299.85352      371.3749       18511.734      19312.136     -118.29055    
   2378000   281.01119      386.12892      18509.649      19297.846      157.79095    
   2379000   274.44408      375.61907      18524.158      19292.449     -93.423115    
   2380000   292.6694       363.21287      18512.091      19294.052     -210.53171    
   2381000   301.11479      368.60128      18498.543      19297.976     -88.528572    
   2382000   298.34835      382.4765       18506.523      19315.873      180.75211    
   2383000   296.73928      386.88445      18528.768      19340.224      226.39976    
   2384000   315.90129      369.99707      18531.783      19353.768     -238.56991    
   2385000   311.6808       366.37753      18545.756      19358.083     -291.63461    
   2386000   326.7534       375.55668      18503.178      19346.249      47.166433    
   2387000   309.26875      380.90695      18506.533      19329.938      67.768771    
   2388000   305.05941      375.98852      18506.58       19319.044      110.20323    
   2389000   281.54699      366.52492      18541.067      19310.426     -386.11358    
   2390000   298.27622      367.20624      18514.271      19308.247     -182.14285    
   2391000   288.81832      379.70178      18517.448      19310.388      131.11588    
   2392000   303.10424      382.76117      18498.36       19314.8        143.78607    
   2393000   313.54511      373.83867      18503.126      19325.582     -137.41031    
   2394000   310.30299      365.17611      18538.898      19348.052     -270.58634    
   2395000   331.73902      379.83006      18519.506      19373.984      32.459936    
   2396000   317.38313      382.24454      18541.777      19378.13       159.82536    
   2397000   313.88999      379.88659      18540.749      19369.746      92.326687    
   2398000   304.91132      371.81245      18544.928      19353.004     -215.12232    
   2399000   303.23039      369.35844      18535.48       19338.697     -216.42548    
   2400000   297.99179      385.13071      18515.273      19326.768      175.13053    
   2401000   296.77687      383.80786      18511.273      19319.706      30.605719    
   2402000   304.10391      370.87447      18506.727      19312.71      -217.79323    
   2403000   296.18427      369.56595      18515.279      19308.622     -81.780021    
   2404000   293.18347      374.82684      18515.172      19309.482     -20.902311    
   2405000   291.03222      381.37884      18520.093      19317.877     -47.323146    
   2406000   307.83967      374.46392      18523.433      19338.35       75.721005    
   2407000   305.44883      368.81494      18552.82       19358.668     -320.2042     
   2408000   305.46488      378.2834       18552.531      19367.87      -32.013629    
   2409000   308.46718      384.19201      18537.975      19363.519      91.380529    
   2410000   306.63154      383.19765      18534.517      19356.44       181.99188    
   2411000   307.55736      370.90686      18531.271      19342.227     -211.98004    
   2412000   293.56899      366.69764      18542.522      19329.255     -317.83862    
   2413000   294.69405      389.70195      18504.33       19315.677      232.82747    
   2414000   304.69599      385.64382      18492.042      19313.641      173.35073    
   2415000   289.34257      376.4213       18524.796      19315.205     -95.860904    
   2416000   283.56129      361.39594      18554.053      19321.165     -364.78612    
   2417000   328.19123      372.21153      18484.608      19326.392     -78.39664     
   2418000   306.85995      391.3233       18493.38       19323.755      339.72708    
   2419000   291.69868      387.82458      18514.353      19319.537      173.4018     
   2420000   295.08029      360.42582      18535.957      19318.58      -354.73712    
Loop time of 15.8349 on 48 procs for 50000 steps with 481 atoms

Performance: 13.641 ns/day, 1.759 hours/ns, 3157.581 timesteps/s, 1.519 Matom-step/s
100.0% CPU use with 48 MPI tasks x 1 OpenMP threads

MPI task timing breakdown:
Section |  min time  |  avg time  |  max time  |%varavg| %total
---------------------------------------------------------------
Pair    | 0.016563   | 0.72442    | 4.281      | 134.3 |  4.57
Bond    | 0.0051966  | 0.92409    | 4.8022     | 149.8 |  5.84
Neigh   | 0.018483   | 0.020714   | 0.022868   |   0.8 |  0.13
Comm    | 5.5414     | 11.604     | 14.439     |  87.7 | 73.28
Output  | 0.0082967  | 0.013733   | 0.019008   |   2.9 |  0.09
Modify  | 0.5346     | 1.9966     | 8.6075     | 185.5 | 12.61
Other   |            | 0.5515     |            |       |  3.48

Nlocal:        10.0208 ave          49 max           0 min
Histogram: 22 10 8 0 0 1 3 0 0 4
Nghost:        1818.35 ave        2346 max        1178 min
Histogram: 8 0 0 0 24 0 0 0 0 16
Neighs:              0 ave           0 max           0 min
Histogram: 48 0 0 0 0 0 0 0 0 0

Total # of neighbors = 0
Ave neighs/atom = 0
Ave special neighs/atom = 15.567568
Neighbor list builds = 54
Dangerous builds = 0
unfix           myat1
next            cpt
jump            SELF loop
variable        zdes equal  -15+0.60*(${cpt}-1)
variable        zdes equal  -15+0.60*(41-1)
variable        zave equal xcm(H2,z)
fix             mytth2 H2 spring tether ${k1} 2.5 2.5 ${zdes} 0
fix             mytth2 H2 spring tether 0.5 2.5 2.5 ${zdes} 0
fix             mytth2 H2 spring tether 0.5 2.5 2.5 9 0
run             10000
Generated 0 of 1 mixed pair_coeff terms from geometric mixing rule
Per MPI rank memory allocation (min/avg/max) = 13.32 | 13.8 | 14.98 Mbytes
   Step          Temp          E_pair         E_mol          TotEng         Press     
   2420000   295.08029      360.42582      18535.957      19318.58      -354.73712    
   2421000   297.61943      365.77894      18523.896      19315.505     -383.46763    
   2422000   295.75944      382.23709      18505.413      19310.82       165.9018     
   2423000   296.00683      386.58861      18493.811      19303.923      266.10775    
   2424000   289.01269      373.56761      18513.34       19300.424     -114.27309    
   2425000   293.71675      360.1707       18522.557      19302.974     -471.55062    
   2426000   300.28814      378.17193      18500.922      19308.743      143.16549    
   2427000   302.91802      388.92854      18497.536      19319.876      348.66421    
   2428000   297.1518       374.10087      18535.797      19335.059     -140.64504    
   2429000   295.69824      371.66641      18552.365      19347.113     -109.78588    
   2430000   320.98691      364.86924      18532.066      19356.2       -340.20907    
Loop time of 3.12317 on 48 procs for 10000 steps with 481 atoms

Performance: 13.832 ns/day, 1.735 hours/ns, 3201.877 timesteps/s, 1.540 Matom-step/s
100.0% CPU use with 48 MPI tasks x 1 OpenMP threads

MPI task timing breakdown:
Section |  min time  |  avg time  |  max time  |%varavg| %total
---------------------------------------------------------------
Pair    | 0.0032746  | 0.14504    | 0.86594    |  60.5 |  4.64
Bond    | 0.0010364  | 0.18492    | 0.9823     |  66.8 |  5.92
Neigh   | 0.002689   | 0.0030249  | 0.0033579  |   0.3 |  0.10
Comm    | 1.0429     | 2.2879     | 2.8455     |  38.3 | 73.26
Output  | 0.0016026  | 0.0026181  | 0.0036532  |   1.2 |  0.08
Modify  | 0.1045     | 0.38995    | 1.6299     |  79.7 | 12.49
Other   |            | 0.1097     |            |       |  3.51

Nlocal:        10.0208 ave          50 max           0 min
Histogram: 25 8 5 2 0 1 3 0 2 2
Nghost:        1818.35 ave        2346 max        1173 min
Histogram: 8 0 0 0 24 0 0 0 0 16
Neighs:              0 ave           0 max           0 min
Histogram: 48 0 0 0 0 0 0 0 0 0

Total # of neighbors = 0
Ave neighs/atom = 0
Ave special neighs/atom = 15.567568
Neighbor list builds = 8
Dangerous builds = 0
fix             myat1 all ave/time 1000 10 10000 v_zave v_zdes file simulation_data/abpot/${cpt}.dat
fix             myat1 all ave/time 1000 10 10000 v_zave v_zdes file simulation_data/abpot/41.dat
run             50000
Generated 0 of 1 mixed pair_coeff terms from geometric mixing rule
Per MPI rank memory allocation (min/avg/max) = 13.32 | 13.8 | 14.98 Mbytes
   Step          Temp          E_pair         E_mol          TotEng         Press     
   2430000   320.98691      364.86924      18532.066      19356.2       -340.20907    
   2431000   314.25154      387.76988      18514.333      19351.73       234.74024    
   2432000   314.76018      382.53913      18502.217      19335.112      195.78164    
   2433000   312.37605      371.54787      18491.021      19309.513     -128.19759    
   2434000   294.6234       369.56443      18503.315      19294.423     -215.84708    
   2435000   290.80896      376.00027      18501.74       19293.826      42.458027    
   2436000   294.71026      383.883        18493.956      19299.508      164.64627    
   2437000   293.72039      372.81954      18516.646      19309.717     -106.51447    
   2438000   292.16922      371.83123      18529.174      19319.038     -217.74496    
   2439000   304.70579      376.25045      18517.687      19329.907     -89.994436    
   2440000   310.97637      382.62881      18511.056      19338.626      240.22396    
   2441000   303.05541      374.65801      18535.602      19343.868     -49.083872    
   2442000   315.52959      362.16972      18532.965      19346.591     -347.96626    
   2443000   300.9186       375.26179      18527.727      19333.54      -87.359412    
   2444000   297.25698      385.62557      18496.97       19307.908      265.739      
   2445000   299.8788       381.09572      18481.265      19291.424      86.316475    
   2446000   292.27087      368.03778      18499.137      19285.353     -172.87256    
   2447000   300.44022      368.75219      18487.629      19286.247     -287.13064    
   2448000   289.03707      381.32785      18499.533      19294.412      164.22342    
   2449000   309.88514      388.34746      18481.263      19312.991      251.87622    
   2450000   294.32763      372.17662      18536.006      19329.304     -141.05551    
   2451000   303.12654      360.38858      18542.139      19336.238     -343.55801    
   2452000   286.319        378.15935      18546.804      19334.625      15.378356    
   2453000   296.07248      390.99855      18513.141      19327.757      243.92022    
   2454000   294.43394      382.28275      18520.135      19323.69       138.9617     
   2455000   300.41715      370.70366      18518.723      19319.26      -180.50573    
   2456000   294.75109      370.57112      18526.703      19319.001     -105.19671    
   2457000   288.04998      381.70127      18518.101      19311.941      26.795401    
   2458000   304.16515      386.37706      18488.459      19310.032      312.70186    
   2459000   299.76154      367.41298      18516.475      19312.783     -162.25251    
   2460000   294.42461      366.54792      18524.371      19312.179     -271.01061    
   2461000   303.47949      371.55916      18507.397      19313.171     -91.02453     
   2462000   287.50854      386.40266      18517.257      19315.023      162.38342    
   2463000   287.29453      380.71069      18524.432      19316.201      5.2029347    
   2464000   297.09407      364.2546       18529.252      19318.585     -229.18195    
   2465000   318.4217       372.27469      18493.336      19321.205     -76.56905     
   2466000   301.10027      388.53426      18505.114      19324.459      244.56372    
   2467000   298.39944      379.42744      18523.16       19329.534      130.97447    
   2468000   311.26768      364.50073      18522.594      19332.453     -227.96727    
   2469000   304.80359      369.36503      18527.344      19332.818     -185.6354     
   2470000   292.04626      383.62682      18527.803      19329.286      276.24049    
   2471000   311.08875      385.21127      18488.776      19319.09       265.27995    
   2472000   297.35113      368.10436      18514.556      19308.107     -226.68098    
   2473000   284.34847      362.30632      18522.31       19291.459     -349.82295    
   2474000   294.65922      378.16412      18486.948      19286.707      68.720342    
   2475000   292.32969      390.76266      18479.636      19288.661      355.647      
   2476000   297.63801      373.14438      18503.751      19302.752     -61.67959     
   2477000   313.71007      361.5764       18517.703      19328.132     -242.4857     
   2478000   306.52742      363.18109      18541.269      19343.027     -300.50857    
   2479000   305.68079      390.45685      18515.277      19343.098      374.68048    
   2480000   322.60019      384.36903      18497.653      19343.595      198.28254    
Loop time of 15.8833 on 48 procs for 50000 steps with 481 atoms

Performance: 13.599 ns/day, 1.765 hours/ns, 3147.960 timesteps/s, 1.514 Matom-step/s
100.0% CPU use with 48 MPI tasks x 1 OpenMP threads

MPI task timing breakdown:
Section |  min time  |  avg time  |  max time  |%varavg| %total
---------------------------------------------------------------
Pair    | 0.016886   | 0.72607    | 4.3386     | 135.5 |  4.57
Bond    | 0.0051654  | 0.92682    | 4.8794     | 149.9 |  5.84
Neigh   | 0.021179   | 0.023709   | 0.026174   |   0.9 |  0.15
Comm    | 5.4787     | 11.669     | 14.452     |  86.7 | 73.46
Output  | 0.0081547  | 0.013389   | 0.018538   |   2.8 |  0.08
Modify  | 0.55125    | 1.9755     | 8.257      | 182.5 | 12.44
Other   |            | 0.5492     |            |       |  3.46

Nlocal:        10.0208 ave          54 max           0 min
Histogram: 28 5 6 1 1 2 1 1 1 2
Nghost:        1818.35 ave        2348 max        1169 min
Histogram: 8 0 0 0 24 0 0 0 0 16
Neighs:              0 ave           0 max           0 min
Histogram: 48 0 0 0 0 0 0 0 0 0

Total # of neighbors = 0
Ave neighs/atom = 0
Ave special neighs/atom = 15.567568
Neighbor list builds = 61
Dangerous builds = 0
unfix           myat1
next            cpt
jump            SELF loop
variable        zdes equal  -15+0.60*(${cpt}-1)
variable        zdes equal  -15+0.60*(42-1)
variable        zave equal xcm(H2,z)
fix             mytth2 H2 spring tether ${k1} 2.5 2.5 ${zdes} 0
fix             mytth2 H2 spring tether 0.5 2.5 2.5 ${zdes} 0
fix             mytth2 H2 spring tether 0.5 2.5 2.5 9.6 0
run             10000
Generated 0 of 1 mixed pair_coeff terms from geometric mixing rule
Per MPI rank memory allocation (min/avg/max) = 13.32 | 13.8 | 14.98 Mbytes
   Step          Temp          E_pair         E_mol          TotEng         Press     
   2480000   322.60019      384.36903      18497.653      19343.595      198.28254    
   2481000   305.17169      371.7549       18531.426      19339.817     -300.6628     
   2482000   308.07452      360.93563      18529.867      19331.592     -437.90188    
   2483000   298.48744      379.19298      18510.007      19316.272     -51.347602    
   2484000   284.77391      393.86395      18503.173      19304.488      405.95129    
   2485000   288.42316      378.77651      18506.573      19298.023      82.56804     
   2486000   291.98055      358.70818      18521.215      19297.686     -469.40337    
   2487000   299.07178      368.23987      18510.45       19306.599     -194.11674    
   2488000   308.09998      381.14908      18501.141      19323.116     -29.85928     
   2489000   309.50679      396.15845      18523.538      19362.535      472.37414    
   2490000   333.74178      361.20722      18539.274      19377.995     -426.46945    
Loop time of 3.04693 on 48 procs for 10000 steps with 481 atoms

Performance: 14.178 ns/day, 1.693 hours/ns, 3281.988 timesteps/s, 1.579 Matom-step/s
99.9% CPU use with 48 MPI tasks x 1 OpenMP threads

MPI task timing breakdown:
Section |  min time  |  avg time  |  max time  |%varavg| %total
---------------------------------------------------------------
Pair    | 0.0033488  | 0.14366    | 0.84021    |  59.9 |  4.71
Bond    | 0.0010351  | 0.18323    | 0.93579    |  66.8 |  6.01
Neigh   | 0.0042542  | 0.0048147  | 0.0053536  |   0.4 |  0.16
Comm    | 1.0454     | 2.2354     | 2.7673     |  37.4 | 73.37
Output  | 0.0016297  | 0.0026426  | 0.0036655  |   1.2 |  0.09
Modify  | 0.10854    | 0.36816    | 1.5096     |  76.4 | 12.08
Other   |            | 0.109      |            |       |  3.58

Nlocal:        10.0208 ave          51 max           0 min
Histogram: 24 12 4 0 0 2 1 1 2 2
Nghost:        1818.35 ave        2347 max        1173 min
Histogram: 8 0 0 0 24 0 0 0 0 16
Neighs:              0 ave           0 max           0 min
Histogram: 48 0 0 0 0 0 0 0 0 0

Total # of neighbors = 0
Ave neighs/atom = 0
Ave special neighs/atom = 15.567568
Neighbor list builds = 13
Dangerous builds = 0
fix             myat1 all ave/time 1000 10 10000 v_zave v_zdes file simulation_data/abpot/${cpt}.dat
fix             myat1 all ave/time 1000 10 10000 v_zave v_zdes file simulation_data/abpot/42.dat
run             50000
Generated 0 of 1 mixed pair_coeff terms from geometric mixing rule
Per MPI rank memory allocation (min/avg/max) = 13.32 | 13.8 | 14.98 Mbytes
   Step          Temp          E_pair         E_mol          TotEng         Press     
   2490000   333.74178      361.20722      18539.274      19377.995     -426.46945    
   2491000   298.21499      371.0824       18573.649      19371.414     -318.57386    
   2492000   314.95578      375.69871      18528.932      19355.266     -48.070094    
   2493000   317.2864       388.68574      18488.607      19331.262      292.44348    
   2494000   281.34984      382.29893      18529.169      19314.02       104.13482    
   2495000   312.16558      367.94019      18497.018      19311.601     -192.14541    
   2496000   299.68834      373.24971      18497.385      19299.425     -68.703463    
   2497000   283.685        375.83552      18509.972      19291.7       -45.049075    
   2498000   278.46189      381.31618      18506.837      19286.573      64.44049     
   2499000   272.86083      386.71521      18518.19       19295.312      139.88947    
   2500000   299.24367      362.76878      18522.276      19313.199     -364.11365    
   2501000   307.40393      376.90242      18519.154      19335.886     -36.632296    
   2502000   317.68649      381.56801      18511.184      19347.294      163.66851    
   2503000   315.28718      378.79059      18516.044      19345.944      38.014262    
   2504000   308.89549      370.08323      18524.371      19336.418     -201.93829    
   2505000   301.28654      367.59425      18529.611      19328.283     -275.20133    
   2506000   304.01118      383.51363      18500.236      19318.726      196.42944    
   2507000   283.94803      374.15938      18531.088      19311.517     -155.5511     
   2508000   303.95188      378.29207      18499.894      19313.077      14.455693    
   2509000   301.11654      371.88935      18508.103      19310.827      20.086377    
   2510000   300.55976      365.67007      18511.985      19307.693     -273.02344    
   2511000   298.05315      375.99965      18505.397      19307.848      9.1699835    
   2512000   297.84387      380.44182      18503.054      19309.647      97.245803    
   2513000   299.71353      380.78354      18504.422      19314.032      153.94843    
   2514000   295.82349      379.91245      18514.692      19317.865      58.476319    
   2515000   300.83832      374.36291      18515.366      19320.165     -189.74885    
   2516000   311.83325      377.34825      18497.527      19321.043      23.331847    
   2517000   289.15695      386.61106      18514.763      19315.097      98.797989    
   2518000   302.85123      374.4538       18504.893      19312.663     -79.620227    
   2519000   291.99298      377.25893      18516.254      19311.293     -103.89289    
   2520000   295.88428      374.91858      18514.59       19312.856     -81.023495    
   2521000   299.09286      375.30037      18513.343      19316.582     -96.791601    
   2522000   313.05999      381.70341      18492.897      19322.523      33.120957    
   2523000   301.83988      369.42566      18525.619      19326.914     -158.49021    
   2524000   313.51839      379.04542      18503.312      19330.936     -44.925421    
   2525000   313.94135      379.128        18510.11       19338.422      0.52398163   
   2526000   300.13894      380.4619       18532.645      19342.542     -14.453087    
   2527000   307.65998      373.02951      18525.402      19338.628     -106.76671    
   2528000   299.08847      376.35388      18521.765      19326.052      4.9807798    
   2529000   285.85079      378.28118      18520.678      19307.951      60.586453    
   2530000   286.40179      381.63975      18503.148      19294.569      141.71962    
   2531000   291.02516      367.23733      18506.367      19290         -194.9566     
   2532000   279.30115      373.77433      18520.658      19294.053     -141.11136    
   2533000   290.84595      378.02986      18515.717      19309.886     -21.997029    
   2534000   302.17563      378.4644       18519.424      19330.238      11.545468    
   2535000   300.77932      377.64093      18530.959      19338.952      64.836151    
   2536000   313.77756      366.53538      18521.793      19337.278     -270.57232    
   2537000   300.68377      383.03007      18520.432      19333.677      225.76086    
   2538000   306.41933      377.45266      18513.329      19329.203      67.152087    
   2539000   301.0521       375.42819      18516.795      19322.965     -24.208265    
   2540000   302.06042      372.20379      18510.137      19314.526      9.4726008    
Loop time of 15.4128 on 48 procs for 50000 steps with 481 atoms

Performance: 14.014 ns/day, 1.713 hours/ns, 3244.066 timesteps/s, 1.560 Matom-step/s
100.0% CPU use with 48 MPI tasks x 1 OpenMP threads

MPI task timing breakdown:
Section |  min time  |  avg time  |  max time  |%varavg| %total
---------------------------------------------------------------
Pair    | 0.016562   | 0.71883    | 4.2931     | 134.5 |  4.66
Bond    | 0.0051797  | 0.91594    | 4.7977     | 148.6 |  5.94
Neigh   | 0.02811    | 0.03151    | 0.034892   |   1.0 |  0.20
Comm    | 5.121      | 11.337     | 13.957     |  85.2 | 73.56
Output  | 0.0081828  | 0.013302   | 0.018342   |   2.8 |  0.09
Modify  | 0.56299    | 1.8503     | 7.6798     | 175.9 | 12.01
Other   |            | 0.5458     |            |       |  3.54

Nlocal:        10.0208 ave          45 max           0 min
Histogram: 22 10 6 2 0 0 1 1 3 3
Nghost:        1818.35 ave        2348 max        1179 min
Histogram: 8 0 0 0 24 0 0 0 0 16
Neighs:              0 ave           0 max           0 min
Histogram: 48 0 0 0 0 0 0 0 0 0

Total # of neighbors = 0
Ave neighs/atom = 0
Ave special neighs/atom = 15.567568
Neighbor list builds = 84
Dangerous builds = 0
unfix           myat1
next            cpt
jump            SELF loop
variable        zdes equal  -15+0.60*(${cpt}-1)
variable        zdes equal  -15+0.60*(43-1)
variable        zave equal xcm(H2,z)
fix             mytth2 H2 spring tether ${k1} 2.5 2.5 ${zdes} 0
fix             mytth2 H2 spring tether 0.5 2.5 2.5 ${zdes} 0
fix             mytth2 H2 spring tether 0.5 2.5 2.5 10.2 0
run             10000
Generated 0 of 1 mixed pair_coeff terms from geometric mixing rule
Per MPI rank memory allocation (min/avg/max) = 13.32 | 13.81 | 14.98 Mbytes
   Step          Temp          E_pair         E_mol          TotEng         Press     
   2540000   302.06042      372.20379      18510.137      19314.526      9.4726008    
   2541000   297.8311       374.33139      18508.043      19308.507     -86.730471    
   2542000   304.847        377.86998      18487.077      19301.119      100.65391    
   2543000   293.02504      369.15613      18500.845      19289.258     -119.91715    
   2544000   286.94093      370.36634      18502.976      19283.894     -188.52795    
   2545000   285.98671      375.10538      18506.092      19290.384      3.7424692    
   2546000   276.38348      373.93411      18534.049      19303.429     -76.803225    
   2547000   292.33733      374.48013      18532.033      19324.787     -61.429872    
   2548000   296.0411       370.59546      18545.915      19340.082     -233.25916    
   2549000   297.42473      375.95724      18538.872      19340.381     -76.580718    
   2550000   301.92094      375.05255      18532.789      19339.827     -40.893213    
Loop time of 3.06951 on 48 procs for 10000 steps with 481 atoms

Performance: 14.074 ns/day, 1.705 hours/ns, 3257.851 timesteps/s, 1.567 Matom-step/s
100.0% CPU use with 48 MPI tasks x 1 OpenMP threads

MPI task timing breakdown:
Section |  min time  |  avg time  |  max time  |%varavg| %total
---------------------------------------------------------------
Pair    | 0.0032676  | 0.14389    | 0.88971    |  60.6 |  4.69
Bond    | 0.001036   | 0.18348    | 0.95032    |  66.5 |  5.98
Neigh   | 0.0049057  | 0.0055296  | 0.0060941  |   0.4 |  0.18
Comm    | 1.0267     | 2.2438     | 2.7968     |  38.5 | 73.10
Output  | 0.0015938  | 0.0026931  | 0.0037457  |   1.3 |  0.09
Modify  | 0.10752    | 0.38084    | 1.5626     |  79.0 | 12.41
Other   |            | 0.1093     |            |       |  3.56

Nlocal:        10.0208 ave          48 max           0 min
Histogram: 22 12 6 0 0 1 0 3 3 1
Nghost:        1818.35 ave        2347 max        1182 min
Histogram: 8 0 0 0 24 0 0 0 0 16
Neighs:              0 ave           0 max           0 min
Histogram: 48 0 0 0 0 0 0 0 0 0

Total # of neighbors = 0
Ave neighs/atom = 0
Ave special neighs/atom = 15.567568
Neighbor list builds = 15
Dangerous builds = 0
fix             myat1 all ave/time 1000 10 10000 v_zave v_zdes file simulation_data/abpot/${cpt}.dat
fix             myat1 all ave/time 1000 10 10000 v_zave v_zdes file simulation_data/abpot/43.dat
run             50000
Generated 0 of 1 mixed pair_coeff terms from geometric mixing rule
Per MPI rank memory allocation (min/avg/max) = 13.32 | 13.81 | 14.98 Mbytes
   Step          Temp          E_pair         E_mol          TotEng         Press     
   2550000   301.92094      375.05255      18532.789      19339.827     -40.893213    
   2551000   302.62807      375.5993       18524.41       19333.006     -40.490911    
   2552000   300.00335      373.33684      18520.749      19323.328      89.579641    
   2553000   296.68575      368.62971      18513.891      19307.016     -165.76943    
   2554000   275.73607      373.74356      18520.827      19289.091     -12.295932    
   2555000   278.82206      375.99134      18508.734      19283.661      37.749893    
   2556000   297.55875      368.95657      18490.859      19285.559     -83.426399    
   2557000   285.26677      368.27443      18512.517      19288.948     -186.45818    
   2558000   304.54499      373.74824      18484.793      19294.281     -51.770481    
   2559000   295.89208      390.63121      18487.775      19301.766      235.35306    
   2560000   302.66978      378.20114      18499.976      19311.233     -8.1183798    
   2561000   293.21685      361.04894      18541.577      19322.158     -440.8356     
   2562000   300.8101       371.91823      18524.008      19326.322     -150.83788    
   2563000   292.4146       384.82884      18526.879      19330.091      175.29774    
   2564000   289.75716      389.26535      18529.03       19332.877      130.72899    
   2565000   295.04553      365.77024      18549.181      19337.099     -299.71996    
   2566000   317.28455      368.23437      18517.158      19339.36      -213.31459    
   2567000   298.87725      377.96989      18532.637      19338.238      13.724118    
   2568000   301.80932      391.24698      18504.576      19327.648      342.69171    
   2569000   291.1293       380.80494      18510.694      19308.044      94.505774    
   2570000   301.01679      360.97979      18503.601      19295.273     -425.87347    
   2571000   300.8049       373.45266      18486.445      19290.286      16.58556     
   2572000   298.81467      383.82513      18478.335      19289.7        282.4623     
   2573000   304.93048      378.54321      18487.403      19302.238      93.859336    
   2574000   313.69273      362.3314       18514.694      19325.853     -304.13445    
   2575000   317.96058      374.90656      18512.347      19342.188      25.411019    
   2576000   302.07308      377.14439      18535.748      19345.095      88.887095    
   2577000   313.46693      379.53262      18513.273      19341.311     -19.658015    
   2578000   303.39205      368.70473      18534.003      19336.798     -221.6895     
   2579000   292.85757      370.01765      18538.613      19327.648     -253.02896    
   2580000   299.12535      376.03343      18513.583      19317.601     -127.75331    
   2581000   293.21809      386.38585      18503.466      19309.385      199.56693    
   2582000   297.64086      368.11785      18509.92       19303.899     -89.274619    
   2583000   296.45438      369.24057      18508.658      19302.062     -215.14691    
   2584000   287.72208      376.46022      18517.735      19305.865      3.7534333    
   2585000   289.88083      375.84155      18530.815      19321.414     -15.633365    
   2586000   302.48084      378.89077      18534.372      19346.049      34.350668    
   2587000   291.43528      374.11039      18569.591      19360.684     -72.02032     
   2588000   321.70968      371.71076      18529.638      19361.648     -145.78703    
   2589000   308.16887      378.64586      18528.929      19348.499      4.097388     
   2590000   322.4867       376.76186      18493.703      19331.875      77.038952    
   2591000   297.55367      371.29485      18520.363      19317.395     -129.3504     
   2592000   317.15975      375.87064      18479.17       19308.829      53.330225    
   2593000   297.27819      370.6574       18508.644      19304.643     -185.8266     
   2594000   294.30301      374.31063      18510.016      19305.412     -80.707503    
   2595000   293.11914      381.59223      18506.909      19307.892      225.56461    
   2596000   300.38474      371.74402      18513.479      19315.01      -120.12624    
   2597000   310.89088      370.74844      18521.574      19337.142     -63.640142    
   2598000   304.05387      373.3847       18555.859      19364.281     -152.29211    
   2599000   349.20288      377.33189      18499.508      19376.475      112.17705    
   2600000   311.78675      378.50092      18542.738      19367.34       66.127839    
Loop time of 15.5372 on 48 procs for 50000 steps with 481 atoms

Performance: 13.902 ns/day, 1.726 hours/ns, 3218.085 timesteps/s, 1.548 Matom-step/s
100.0% CPU use with 48 MPI tasks x 1 OpenMP threads

MPI task timing breakdown:
Section |  min time  |  avg time  |  max time  |%varavg| %total
---------------------------------------------------------------
Pair    | 0.016441   | 0.71594    | 4.3558     | 135.0 |  4.61
Bond    | 0.0051969  | 0.91528    | 4.8567     | 149.3 |  5.89
Neigh   | 0.016757   | 0.018773   | 0.020775   |   0.8 |  0.12
Comm    | 5.1754     | 11.36      | 14.153     |  85.0 | 73.11
Output  | 0.0082052  | 0.013325   | 0.018402   |   2.8 |  0.09
Modify  | 0.52673    | 1.9675     | 7.9066     | 175.6 | 12.66
Other   |            | 0.5466     |            |       |  3.52

Nlocal:        10.0208 ave          56 max           0 min
Histogram: 24 15 1 1 2 1 0 0 2 2
Nghost:        1818.35 ave        2346 max        1168 min
Histogram: 8 0 0 0 24 0 0 0 0 16
Neighs:              0 ave           0 max           0 min
Histogram: 48 0 0 0 0 0 0 0 0 0

Total # of neighbors = 0
Ave neighs/atom = 0
Ave special neighs/atom = 15.567568
Neighbor list builds = 50
Dangerous builds = 0
unfix           myat1
next            cpt
jump            SELF loop
variable        zdes equal  -15+0.60*(${cpt}-1)
variable        zdes equal  -15+0.60*(44-1)
variable        zave equal xcm(H2,z)
fix             mytth2 H2 spring tether ${k1} 2.5 2.5 ${zdes} 0
fix             mytth2 H2 spring tether 0.5 2.5 2.5 ${zdes} 0
fix             mytth2 H2 spring tether 0.5 2.5 2.5 10.8 0
run             10000
Generated 0 of 1 mixed pair_coeff terms from geometric mixing rule
Per MPI rank memory allocation (min/avg/max) = 13.32 | 13.81 | 14.98 Mbytes
   Step          Temp          E_pair         E_mol          TotEng         Press     
   2600000   311.78675      378.50092      18542.738      19367.34       66.127839    
   2601000   300.45404      377.11505      18544.694      19351.696      73.37502     
   2602000   317.37851      376.14857      18508.36       19338.61       87.836013    
   2603000   309.94535      371.86257      18512.625      19327.954     -137.27764    
   2604000   297.46069      375.41136      18515.805      19316.819      28.959473    
   2605000   311.8838       372.04824      18492.555      19310.843     -49.623502    
   2606000   295.38927      374.55796      18511.38       19308.577      56.863412    
   2607000   297.27354      374.89988      18509.521      19309.756      12.0549      
   2608000   307.80124      361.76471      18508.088      19310.252     -230.84151    
   2609000   294.4087       374.02651      18526.923      19322.186     -88.844616    
   2610000   299.94788      378.27198      18539.753      19347.187      96.64617     
Loop time of 3.19257 on 48 procs for 10000 steps with 481 atoms

Performance: 13.531 ns/day, 1.774 hours/ns, 3132.268 timesteps/s, 1.507 Matom-step/s
100.0% CPU use with 48 MPI tasks x 1 OpenMP threads

MPI task timing breakdown:
Section |  min time  |  avg time  |  max time  |%varavg| %total
---------------------------------------------------------------
Pair    | 0.00326    | 0.14342    | 0.8433     |  59.4 |  4.49
Bond    | 0.0010344  | 0.18346    | 0.94582    |  66.6 |  5.75
Neigh   | 0.0030257  | 0.0034193  | 0.0038036  |   0.3 |  0.11
Comm    | 1.1803     | 2.3493     | 2.9173     |  38.7 | 73.59
Output  | 0.0016903  | 0.0027288  | 0.0037822  |   1.2 |  0.09
Modify  | 0.10484    | 0.40036    | 1.6786     |  83.2 | 12.54
Other   |            | 0.1098     |            |       |  3.44

Nlocal:        10.0208 ave          50 max           0 min
Histogram: 23 11 6 0 0 1 2 2 1 2
Nghost:        1818.35 ave        2347 max        1173 min
Histogram: 8 0 0 0 24 0 0 0 0 16
Neighs:              0 ave           0 max           0 min
Histogram: 48 0 0 0 0 0 0 0 0 0

Total # of neighbors = 0
Ave neighs/atom = 0
Ave special neighs/atom = 15.567568
Neighbor list builds = 9
Dangerous builds = 0
fix             myat1 all ave/time 1000 10 10000 v_zave v_zdes file simulation_data/abpot/${cpt}.dat
fix             myat1 all ave/time 1000 10 10000 v_zave v_zdes file simulation_data/abpot/44.dat
run             50000
Generated 0 of 1 mixed pair_coeff terms from geometric mixing rule
Per MPI rank memory allocation (min/avg/max) = 13.32 | 13.81 | 14.98 Mbytes
   Step          Temp          E_pair         E_mol          TotEng         Press     
   2610000   299.94788      378.27198      18539.753      19347.187      96.64617     
   2611000   319.89616      374.44956      18533.094      19365.248     -44.360878    
   2612000   325.63063      373.23501      18528.908      19368.052     -40.904006    
   2613000   311.00262      372.90005      18541.443      19359.322     -32.072885    
   2614000   314.44802      374.95         18514.916      19339.775     -35.973871    
   2615000   284.51082      383.11153      18531.856      19322.043      142.90255    
   2616000   299.59948      376.22131      18512.624      19317.509      3.46434      
   2617000   303.14957      372.58462      18511.115      19317.442     -105.67958    
   2618000   296.95724      367.0512       18525.039      19316.973     -224.57083    
   2619000   291.80257      378.08001      18520.696      19316.284      110.12203    
   2620000   293.42575      375.33953      18519.462      19314.632      23.849724    
   2621000   296.93645      372.66767      18519.079      19316.6       -74.017819    
   2622000   304.54817      369.50742      18528.401      19333.653     -257.80732    
   2623000   319.69555      376.15462      18525.524      19359.095     -77.271546    
   2624000   322.76215      384.21337      18523.164      19369.182      341.74396    
   2625000   312.63286      374.10918      18543.009      19364.43      -193.71042    
   2626000   318.56871      369.0468       18523.044      19347.896     -227.69449    
   2627000   300.89459      369.9498       18529.037      19329.503     -91.121885    
   2628000   303.55968      379.90984      18505.063      19319.303      209.25604    
   2629000   303.1163       376.90879      18502.347      19312.951     -12.327551    
   2630000   299.23069      368.36916      18513.098      19309.603     -150.72367    
   2631000   307.68758      370.06469      18500.492      19310.792     -153.95316    
   2632000   306.93023      378.39498      18494.174      19311.721      121.74316    
   2633000   294.29232      385.01559      18508.72       19314.806      208.03936    
   2634000   308.78671      378.58347      18503.217      19323.609      58.933075    
   2635000   315.42393      365.83233      18523.488      19340.625     -218.1525     
   2636000   314.56078      376.54317      18530.781      19357.394     -25.874539    
   2637000   314.87151      379.3771       18532.963      19362.855      69.908581    
   2638000   312.29508      381.66894      18533.117      19361.614     -3.7761376    
   2639000   300.06263      377.01855      18535.445      19341.79       36.874146    
   2640000   293.31096      367.17998      18529.322      19316.168     -287.01465    
   2641000   303.96001      377.12595      18495.756      19307.784      98.47487     
   2642000   298.11403      384.96301      18491.819      19303.32       151.62348    
   2643000   303.97455      378.77073      18492.769      19306.463     -21.68517     
   2644000   303.80861      371.46519      18509.041      19315.192     -155.95676    
   2645000   299.57238      371.08833      18521.721      19321.434     -115.5399     
   2646000   310.61507      380.78528      18503.223      19328.433      98.942833    
   2647000   316.34264      375.55398      18515.648      19343.821      50.941241    
   2648000   328.41262      373.89848      18517.118      19360.906     -88.057994    
   2649000   331.4377       368.78839      18531.65       19374.656     -148.29158    
   2650000   290.45115      379.12177      18577.283      19371.979      60.945242    
   2651000   306.97756      373.34596      18542.222      19354.788     -38.247576    
   2652000   277.62509      377.68355      18544.492      19319.398     -149.2379     
   2653000   299.93919      368.85516      18507.556      19305.561     -256.8495     
   2654000   299.2572       378.91456      18497.841      19304.93       168.4832     
   2655000   298.80574      373.71178      18505.499      19306.738     -102.77675    
   2656000   285.57716      367.77454      18535.512      19311.887     -104.25292    
   2657000   306.6118       372.87079      18512.195      19323.762     -114.25199    
   2658000   296.20899      370.66914      18540.05       19334.532     -43.144214    
   2659000   312.2857       381.78098      18516.188      19344.783      138.34706    
   2660000   316.96231      373.7858       18521.638      19348.93      -54.181297    
Loop time of 15.9462 on 48 procs for 50000 steps with 481 atoms

Performance: 13.546 ns/day, 1.772 hours/ns, 3135.534 timesteps/s, 1.508 Matom-step/s
100.0% CPU use with 48 MPI tasks x 1 OpenMP threads

MPI task timing breakdown:
Section |  min time  |  avg time  |  max time  |%varavg| %total
---------------------------------------------------------------
Pair    | 0.016555   | 0.71666    | 4.3037     | 135.1 |  4.49
Bond    | 0.005191   | 0.91633    | 4.7966     | 148.9 |  5.75
Neigh   | 0.028864   | 0.03224    | 0.035616   |   1.0 |  0.20
Comm    | 5.6529     | 11.792     | 14.52      |  87.7 | 73.95
Output  | 0.0084102  | 0.013585   | 0.018671   |   2.8 |  0.09
Modify  | 0.53878    | 1.9307     | 8.2982     | 188.0 | 12.11
Other   |            | 0.5452     |            |       |  3.42

Nlocal:        10.0208 ave          46 max           0 min
Histogram: 24 9 6 1 0 0 1 1 4 2
Nghost:        1818.35 ave        2345 max        1180 min
Histogram: 8 0 0 0 24 0 0 0 0 16
Neighs:              0 ave           0 max           0 min
Histogram: 48 0 0 0 0 0 0 0 0 0

Total # of neighbors = 0
Ave neighs/atom = 0
Ave special neighs/atom = 15.567568
Neighbor list builds = 84
Dangerous builds = 0
unfix           myat1
next            cpt
jump            SELF loop
variable        zdes equal  -15+0.60*(${cpt}-1)
variable        zdes equal  -15+0.60*(45-1)
variable        zave equal xcm(H2,z)
fix             mytth2 H2 spring tether ${k1} 2.5 2.5 ${zdes} 0
fix             mytth2 H2 spring tether 0.5 2.5 2.5 ${zdes} 0
fix             mytth2 H2 spring tether 0.5 2.5 2.5 11.4 0
run             10000
Generated 0 of 1 mixed pair_coeff terms from geometric mixing rule
Per MPI rank memory allocation (min/avg/max) = 13.32 | 13.81 | 14.98 Mbytes
   Step          Temp          E_pair         E_mol          TotEng         Press     
   2660000   316.96231      373.7858       18521.638      19348.93      -54.181297    
   2661000   311.72869      371.01401      18530.282      19347.314     -115.94261    
   2662000   311.55121      371.66917      18516.266      19333.699     -59.032308    
   2663000   296.50127      379.0193       18508.057      19311.307      87.943596    
   2664000   299.7715       379.28924      18489.093      19297.292      33.397572    
   2665000   279.87906      364.45976      18523.474      19288.381     -243.98442    
   2666000   292.3101       366.56978      18502.149      19286.953     -305.30287    
   2667000   284.45066      377.57186      18511.129      19295.69       138.92794    
   2668000   290.81615      384.07438      18511.698      19311.869      187.15852    
   2669000   290.64306      377.13589      18534.353      19327.337      22.089982    
   2670000   300.71309      369.20166      18535.815      19335.274     -289.94804    
Loop time of 3.00908 on 48 procs for 10000 steps with 481 atoms

Performance: 14.357 ns/day, 1.672 hours/ns, 3323.272 timesteps/s, 1.598 Matom-step/s
100.0% CPU use with 48 MPI tasks x 1 OpenMP threads

MPI task timing breakdown:
Section |  min time  |  avg time  |  max time  |%varavg| %total
---------------------------------------------------------------
Pair    | 0.0032587  | 0.14329    | 0.86913    |  60.7 |  4.76
Bond    | 0.0010405  | 0.18302    | 0.93859    |  66.6 |  6.08
Neigh   | 0.004137   | 0.0046597  | 0.0051903  |   0.4 |  0.15
Comm    | 0.99354    | 2.2152     | 2.7452     |  38.0 | 73.62
Output  | 0.0016192  | 0.0026513  | 0.0036895  |   1.3 |  0.09
Modify  | 0.10314    | 0.35154    | 1.4981     |  77.2 | 11.68
Other   |            | 0.1088     |            |       |  3.61

Nlocal:        10.0208 ave          48 max           0 min
Histogram: 24 8 8 0 0 0 2 2 2 2
Nghost:        1818.35 ave        2345 max        1176 min
Histogram: 8 0 0 0 24 0 0 0 0 16
Neighs:              0 ave           0 max           0 min
Histogram: 48 0 0 0 0 0 0 0 0 0

Total # of neighbors = 0
Ave neighs/atom = 0
Ave special neighs/atom = 15.567568
Neighbor list builds = 13
Dangerous builds = 0
fix             myat1 all ave/time 1000 10 10000 v_zave v_zdes file simulation_data/abpot/${cpt}.dat
fix             myat1 all ave/time 1000 10 10000 v_zave v_zdes file simulation_data/abpot/45.dat
run             50000
Generated 0 of 1 mixed pair_coeff terms from geometric mixing rule
Per MPI rank memory allocation (min/avg/max) = 13.32 | 13.81 | 14.98 Mbytes
   Step          Temp          E_pair         E_mol          TotEng         Press     
   2670000   300.71309      369.20166      18535.815      19335.274     -289.94804    
   2671000   318.76969      372.31498      18505.745      19334.152     -67.26401     
   2672000   282.82651      381.43084      18539.278      19325.374      143.88724    
   2673000   313.0748       379.70292      18498.356      19326.003      155.95458    
   2674000   300.24203      372.644        18521.922      19324.149     -65.581968    
   2675000   300.28109      369.20232      18525.412      19324.253     -113.76355    
   2676000   307.69208      366.97726      18506.689      19313.909     -183.18131    
   2677000   286.89056      379.50943      18510.533      19300.522      139.27604    
   2678000   295.63986      374.70084      18484.826      19282.525     -17.686995    
   2679000   278.02347      369.88975      18502.789      19270.472     -121.70022    
   2680000   274.67295      372.29411      18506.823      19272.117     -93.476271    
   2681000   285.72         375.04724      18506.737      19290.589      36.935075    
   2682000   303.32126      369.8664       18507.44       19311.295     -72.153955    
   2683000   292.65463      380.29471      18524.438      19323.459      96.641062    
   2684000   298.6303       368.48346      18533.265      19329.025     -263.05732    
   2685000   299.06388      373.02214      18526.315      19327.234     -71.831037    
   2686000   290.33714      374.6628       18538.007      19328.081     -13.855136    
   2687000   300.74752      375.30672      18522.939      19328.552      76.983476    
   2688000   308.21302      370.24771      18513.723      19324.958     -115.0427     
   2689000   295.27206      371.34901      18525.719      19319.54      -40.619777    
   2690000   302.55956      378.80175      18501.051      19312.751      9.6906708    
   2691000   287.33924      374.65707      18510.565      19296.344     -8.7511348    
   2692000   286.33961      370.20016      18502.166      19282.057     -139.85762    
   2693000   296.48162      369.02146      18491.907      19285.131      34.590398    
   2694000   288.91267      376.03179      18507.145      19296.549      19.794874    
   2695000   298.96448      371.79514      18518.732      19318.282     -34.562736    
   2696000   300.14088      371.82821      18537.194      19338.46      -143.45561    
   2697000   313.81022      371.38145      18525.484      19345.861      31.058405    
   2698000   301.57339      369.28409      18541.119      19341.891     -109.20211    
   2699000   304.89914      384.12986      18515.914      19336.29       294.01877    
   2700000   291.15046      376.20306      18542.688      19335.466     -101.33524    
   2701000   295.91763      377.27985      18527.042      19327.718     -4.7890884    
   2702000   300.57907      371.5471       18513.069      19314.682     -71.263404    
   2703000   305.77656      367.07842      18490.092      19294.672     -99.728686    
   2704000   281.25502      380.67611      18495.012      19278.105      142.54742    
   2705000   274.71029      373.46339      18509.929      19276.445     -76.840636    
   2706000   284.04156      375.68378      18504.779      19286.866      28.155401    
   2707000   289.28111      369.36679      18512.878      19296.145     -170.53291    
   2708000   296.98148      368.45023      18508.852      19302.22      -102.59828    
   2709000   302.88767      378.25371      18501.038      19312.659      29.49985     
   2710000   292.55266      372.53623      18534.782      19325.9       -127.55198    
   2711000   297.23583      378.52948      18528.035      19331.846      22.473074    
   2712000   314.08305      366.51273      18523.855      19339.754     -191.15522    
   2713000   302.65508      373.10561      18539.401      19345.542     -48.695934    
   2714000   296.53079      377.22746      18540.912      19342.413     -61.620136    
   2715000   308.56714      374.16912      18522.151      19337.814      25.962156    
   2716000   290.368        376.47509      18524.382      19316.312     -106.09921    
   2717000   293.46472      376.23224      18501.799      19297.917     -33.802414    
   2718000   291.34313      371.96201      18502.629      19291.442     -75.17906     
   2719000   292.40228      375.3906       18498.714      19292.471      28.421813    
   2720000   295.56986      371.83818      18508.283      19303.019     -44.471388    
Loop time of 17.156 on 48 procs for 50000 steps with 481 atoms

Performance: 12.590 ns/day, 1.906 hours/ns, 2914.432 timesteps/s, 1.402 Matom-step/s
100.0% CPU use with 48 MPI tasks x 1 OpenMP threads

MPI task timing breakdown:
Section |  min time  |  avg time  |  max time  |%varavg| %total
---------------------------------------------------------------
Pair    | 0.017671   | 0.79194    | 4.4581     | 134.8 |  4.62
Bond    | 0.0053475  | 0.98859    | 5.3873     | 150.4 |  5.76
Neigh   | 0.028749   | 0.03239    | 0.035998   |   1.0 |  0.19
Comm    | 6.6909     | 12.527     | 15.396     |  84.2 | 73.02
Output  | 0.009734   | 0.015552   | 0.021162   |   2.9 |  0.09
Modify  | 0.64455    | 2.1634     | 8.3906     | 171.6 | 12.61
Other   |            | 0.6373     |            |       |  3.71

Nlocal:        10.0208 ave          50 max           0 min
Histogram: 21 13 6 0 1 1 1 2 0 3
Nghost:        1818.35 ave        2346 max        1173 min
Histogram: 8 0 0 0 24 0 0 0 0 16
Neighs:              0 ave           0 max           0 min
Histogram: 48 0 0 0 0 0 0 0 0 0

Total # of neighbors = 0
Ave neighs/atom = 0
Ave special neighs/atom = 15.567568
Neighbor list builds = 75
Dangerous builds = 0
unfix           myat1
next            cpt
jump            SELF loop
variable        zdes equal  -15+0.60*(${cpt}-1)
variable        zdes equal  -15+0.60*(46-1)
variable        zave equal xcm(H2,z)
fix             mytth2 H2 spring tether ${k1} 2.5 2.5 ${zdes} 0
fix             mytth2 H2 spring tether 0.5 2.5 2.5 ${zdes} 0
fix             mytth2 H2 spring tether 0.5 2.5 2.5 12 0
run             10000
Generated 0 of 1 mixed pair_coeff terms from geometric mixing rule
Per MPI rank memory allocation (min/avg/max) = 13.32 | 13.82 | 14.98 Mbytes
   Step          Temp          E_pair         E_mol          TotEng         Press     
   2720000   295.56986      371.83818      18508.283      19303.019     -44.471388    
   2721000   280.06507      372.53959      18545.876      19319.129     -136.76322    
   2722000   297.41556      384.20059      18527.538      19337.278      212.64685    
   2723000   310.69019      375.01925      18526.686      19346.237     -30.744791    
   2724000   293.10149      366.25014      18558.29       19343.906     -275.3215     
   2725000   314.0494       375.24758      18515.695      19340.281      53.102824    
   2726000   296.09757      375.16983      18535.52       19334.343     -59.455226    
   2727000   308.35716      375.47654      18508.918      19325.589     -67.598903    
   2728000   304.93721      368.14722      18510.703      19315.151     -113.33021    
   2729000   292.58367      364.99997      18521.867      19305.493     -207.69307    
   2730000   284.62901      380.63955      18503.463      19291.347      205.24357    
Loop time of 3.90144 on 48 procs for 10000 steps with 481 atoms

Performance: 11.073 ns/day, 2.167 hours/ns, 2563.155 timesteps/s, 1.233 Matom-step/s
100.0% CPU use with 48 MPI tasks x 1 OpenMP threads

MPI task timing breakdown:
Section |  min time  |  avg time  |  max time  |%varavg| %total
---------------------------------------------------------------
Pair    | 0.0035448  | 0.17137    | 1.0207     |  61.7 |  4.39
Bond    | 0.0010797  | 0.21044    | 1.3944     |  70.1 |  5.39
Neigh   | 0.0049858  | 0.0054343  | 0.0060034  |   0.4 |  0.14
Comm    | 1.2139     | 2.8886     | 3.5505     |  40.4 | 74.04
Output  | 0.002104   | 0.0032911  | 0.004487   |   1.3 |  0.08
Modify  | 0.13169    | 0.48573    | 1.9941     |  86.3 | 12.45
Other   |            | 0.1366     |            |       |  3.50

Nlocal:        10.0208 ave          53 max           0 min
Histogram: 25 13 2 0 2 1 1 0 2 2
Nghost:        1818.35 ave        2347 max        1171 min
Histogram: 8 0 0 0 24 0 0 0 0 16
Neighs:              0 ave           0 max           0 min
Histogram: 48 0 0 0 0 0 0 0 0 0

Total # of neighbors = 0
Ave neighs/atom = 0
Ave special neighs/atom = 15.567568
Neighbor list builds = 10
Dangerous builds = 0
fix             myat1 all ave/time 1000 10 10000 v_zave v_zdes file simulation_data/abpot/${cpt}.dat
fix             myat1 all ave/time 1000 10 10000 v_zave v_zdes file simulation_data/abpot/46.dat
run             50000
Generated 0 of 1 mixed pair_coeff terms from geometric mixing rule
Per MPI rank memory allocation (min/avg/max) = 13.32 | 13.82 | 14.98 Mbytes
   Step          Temp          E_pair         E_mol          TotEng         Press     
   2730000   284.62901      380.63955      18503.463      19291.347      205.24357    
   2731000   290.49507      377.85188      18482.156      19275.645      98.650457    
   2732000   271.60447      374.79857      18499.487      19262.894     -56.89584     
   2733000   284.26982      368.76177      18487.657      19263.148     -135.84717    
   2734000   274.94748      369.71613      18519.919      19283.027     -143.04578    
   2735000   294.86214      375.52877      18516.283      19313.697      79.436899    
   2736000   294.69199      374.19185      18527.09       19322.923     -109.95159    
   2737000   287.48249      373.19362      18545.783      19330.303     -115.09433    
   2738000   297.48009      370.43882      18545.423      19341.493     -104.55575    
   2739000   299.41693      369.22753      18548.714      19346.344     -84.535757    
   2740000   299.17899      378.92297      18538.955      19345.94       131.3823     
   2741000   322.17422      378.16636      18509.034      19348.164      40.531507    
   2742000   292.26865      379.607        18545.251      19343.033      18.207947    
   2743000   303.92938      367.51111      18527.933      19330.303     -152.52977    
   2744000   306.6254       375.73481      18497.115      19311.566      58.628897    
   2745000   294.81784      374.84233      18503.916      19300.581      12.840246    
   2746000   276.69388      373.73816      18528.709      19298.338      116.89638    
   2747000   287.97628      375.55552      18515.224      19302.812      5.2743144    
   2748000   306.85615      371.42163      18513.257      19323.725     -37.421739    
   2749000   308.89563      379.69349      18527.784      19349.442      62.463179    
   2750000   318.3174       370.08417      18530.375      19355.904     -155.61388    
   2751000   326.73542      376.99037      18508.32       19352.8       -6.0682092    
   2752000   321.87645      372.28594      18514.806      19347.629     -36.344562    
   2753000   290.9021       377.35507      18541.916      19335.49       89.510128    
   2754000   285.78852      376.51946      18541.338      19326.76       21.42341     
   2755000   287.6484       364.80263      18539.901      19316.268     -251.6228     
   2756000   284.66198      370.71834      18531.437      19309.446     -99.029405    
   2757000   280.95015      379.76421      18521.565      19303.309     -6.6366454    
   2758000   299.10217      374.45268      18502.949      19305.354     -4.3766094    
   2759000   311.79836      370.00827      18504.553      19320.679     -45.208617    
   2760000   311.2869       370.10488      18531.081      19346.571     -191.68773    
   2761000   312.28386      375.67862      18542.87       19365.36       67.747879    
   2762000   325.16794      378.55488      18523.681      19367.483      111.57321    
   2763000   316.26656      383.71197      18520.455      19356.678      203.56852    
   2764000   292.17551      359.75357      18562.307      19340.102     -391.62108    
   2765000   293.69667      371.08106      18535.436      19326.735     -137.98257    
   2766000   289.22725      376.70993      18528.208      19318.741      146.18961    
   2767000   303.20047      375.13509      18508.298      19317.249      118.41043    
   2768000   292.21286      372.48157      18525.55       19316.126     -53.141396    
   2769000   306.98101      368.91326      18510.426      19318.564     -115.28176    
   2770000   294.93295      368.11474      18531.411      19321.513     -182.44474    
   2771000   288.52174      385.09096      18530.359      19328.263      115.32719    
   2772000   289.50289      373.98543      18546.275      19334.478     -30.264559    
   2773000   299.33564      365.82436      18543.336      19337.446     -187.5266     
   2774000   289.82568      367.04451      18554.356      19336.08      -282.13062    
   2775000   308.77532      375.86829      18516.098      19333.759      134.56423    
   2776000   297.02168      384.67985      18517.797      19327.452      264.68078    
   2777000   305.44673      367.57778      18522.181      19326.788     -189.52811    
   2778000   296.76048      377.22931      18519.38       19321.211      35.940534    
   2779000   282.02606      377.88089      18530.756      19312.157      49.255935    
   2780000   290.84141      384.52035      18498.728      19299.381      297.78768    
Loop time of 19.6359 on 48 procs for 50000 steps with 481 atoms

Performance: 11.000 ns/day, 2.182 hours/ns, 2546.351 timesteps/s, 1.225 Matom-step/s
100.0% CPU use with 48 MPI tasks x 1 OpenMP threads

MPI task timing breakdown:
Section |  min time  |  avg time  |  max time  |%varavg| %total
---------------------------------------------------------------
Pair    | 0.017968   | 0.84665    | 4.4673     | 135.9 |  4.31
Bond    | 0.0054871  | 1.05       | 6.163      | 152.7 |  5.35
Neigh   | 0.022937   | 0.02504    | 0.02774    |   0.8 |  0.13
Comm    | 7.7411     | 14.396     | 17.687     |  87.2 | 73.31
Output  | 0.010526   | 0.016561   | 0.022434   |   2.9 |  0.08
Modify  | 0.67054    | 2.6215     | 9.7875     | 186.9 | 13.35
Other   |            | 0.6804     |            |       |  3.46

Nlocal:        10.0208 ave          50 max           0 min
Histogram: 23 11 6 0 1 0 1 3 0 3
Nghost:        1818.35 ave        2345 max        1173 min
Histogram: 8 0 0 0 24 0 0 0 0 16
Neighs:              0 ave           0 max           0 min
Histogram: 48 0 0 0 0 0 0 0 0 0

Total # of neighbors = 0
Ave neighs/atom = 0
Ave special neighs/atom = 15.567568
Neighbor list builds = 50
Dangerous builds = 0
unfix           myat1
next            cpt
jump            SELF loop
variable        zdes equal  -15+0.60*(${cpt}-1)
variable        zdes equal  -15+0.60*(47-1)
variable        zave equal xcm(H2,z)
fix             mytth2 H2 spring tether ${k1} 2.5 2.5 ${zdes} 0
fix             mytth2 H2 spring tether 0.5 2.5 2.5 ${zdes} 0
fix             mytth2 H2 spring tether 0.5 2.5 2.5 12.6 0
run             10000
Generated 0 of 1 mixed pair_coeff terms from geometric mixing rule
Per MPI rank memory allocation (min/avg/max) = 13.32 | 13.82 | 14.98 Mbytes
   Step          Temp          E_pair         E_mol          TotEng         Press     
   2780000   290.84141      384.52035      18498.728      19299.381      297.78768    
   2781000   279.19982      372.45033      18516.773      19288.699     -7.782008     
   2782000   274.80133      365.74748      18527.022      19285.952     -256.12578    
   2783000   286.91306      376.45649      18506.665      19293.634      122.81203    
   2784000   310.60653      377.54644      18488.045      19310.004      11.619298    
   2785000   307.78479      381.66085      18510.578      19332.614      192.08162    
   2786000   307.8905       365.49123      18535.761      19341.778     -271.48677    
   2787000   305.5557       366.92096      18538.632      19342.739     -186.27143    
   2788000   300.95231      378.46735      18531.86       19340.926      84.485343    
   2789000   297.74543      378.46477      18528.13       19332.605     -35.519681    
   2790000   293.05771      374.39871      18529.101      19322.803      14.696037    
Loop time of 3.63374 on 48 procs for 10000 steps with 481 atoms

Performance: 11.889 ns/day, 2.019 hours/ns, 2751.989 timesteps/s, 1.324 Matom-step/s
100.0% CPU use with 48 MPI tasks x 1 OpenMP threads

MPI task timing breakdown:
Section |  min time  |  avg time  |  max time  |%varavg| %total
---------------------------------------------------------------
Pair    | 0.0035617  | 0.16541    | 0.86452    |  60.1 |  4.55
Bond    | 0.0010737  | 0.2085     | 1.1158     |  68.2 |  5.74
Neigh   | 0.0048957  | 0.0054682  | 0.0061045  |   0.4 |  0.15
Comm    | 1.3771     | 2.6367     | 3.2446     |  37.5 | 72.56
Output  | 0.0020743  | 0.0032779  | 0.0044958  |   1.3 |  0.09
Modify  | 0.1344     | 0.47932    | 1.7207     |  75.1 | 13.19
Other   |            | 0.135      |            |       |  3.72

Nlocal:        10.0208 ave          50 max           0 min
Histogram: 24 10 5 1 0 1 1 2 3 1
Nghost:        1818.35 ave        2345 max        1173 min
Histogram: 8 0 0 0 24 0 0 0 0 16
Neighs:              0 ave           0 max           0 min
Histogram: 48 0 0 0 0 0 0 0 0 0

Total # of neighbors = 0
Ave neighs/atom = 0
Ave special neighs/atom = 15.567568
Neighbor list builds = 12
Dangerous builds = 0
fix             myat1 all ave/time 1000 10 10000 v_zave v_zdes file simulation_data/abpot/${cpt}.dat
fix             myat1 all ave/time 1000 10 10000 v_zave v_zdes file simulation_data/abpot/47.dat
run             50000
Generated 0 of 1 mixed pair_coeff terms from geometric mixing rule
Per MPI rank memory allocation (min/avg/max) = 13.32 | 13.82 | 14.98 Mbytes
   Step          Temp          E_pair         E_mol          TotEng         Press     
   2790000   293.05771      374.39871      18529.101      19322.803      14.696037    
   2791000   297.65297      369.68397      18519.245      19314.808     -133.91499    
   2792000   291.02804      374.51974      18511.685      19302.604      3.6070587    
   2793000   285.27133      374.42206      18505.347      19287.932     -19.481421    
   2794000   282.39235      370.35985      18502.117      19276.521     -131.54668    
   2795000   281.98446      372.1339       18494.404      19269.998     -12.905511    
   2796000   269.47265      374.63575      18520.32       19280.514     -56.570673    
   2797000   290.96864      379.98071      18514.645      19310.941      127.31784    
   2798000   293.15873      366.16722      18543.99       19329.606     -241.98943    
   2799000   311.06185      369.28916      18521.314      19335.667     -188.25645    
   2800000   304.22686      378.27864      18524.43       19337.993      7.215688     
   2801000   312.94222      376.11141      18514.004      19337.869     -59.241356    
   2802000   319.09411      374.57505      18504.713      19335.844      55.410823    
   2803000   307.20481      366.19642      18525.795      19331.536     -148.35602    
   2804000   300.86946      376.34372      18513.53       19320.354      69.405994    
   2805000   298.06342      376.73182      18501.597      19304.795      81.291556    
   2806000   292.44146      375.19879      18500.622      19294.242     -46.130394    
   2807000   278.42265      375.96986      18518.366      19292.7        94.529451    
   2808000   298.14418      365.99633      18505.25       19297.827     -141.31432    
   2809000   305.03129      371.835        18508.292      19316.562     -40.972652    
   2810000   302.43468      381.86269      18526.117      19340.7        26.941546    
   2811000   309.7111       376.69621      18529.828      19349.655      0.24953239   
   2812000   318.88124      375.291        18520.211      19351.754      33.182871    
   2813000   310.21084      362.68732      18538.764      19345.297     -353.70504    
   2814000   308.83672      374.53225      18514.717      19331.13      -48.446133    
   2815000   304.60555      378.26073      18503.334      19317.421      173.90207    
   2816000   296.52722      379.48787      18507.465      19311.22       45.006535    
   2817000   307.98167      371.30847      18501.08       19313.045      22.602125    
   2818000   271.71085      370.42789      18554.293      19313.481     -178.39501    
   2819000   296.06145      373.0928       18521.276      19317.97      -62.705551    
   2820000   295.65611      385.73525      18528.975      19337.732      209.5795     
   2821000   305.14236      380.0183       18544.737      19361.35       78.180575    
   2822000   301.62496      366.87431      18574.028      19372.464     -275.17601    
   2823000   302.24579      371.2961       18563.225      19366.971     -120.47566    
   2824000   293.56208      373.34776      18561.437      19354.81      -70.37571     
   2825000   314.56902      378.22178      18512.244      19340.548      134.93296    
   2826000   301.79127      371.6134       18522.976      19326.389     -213.87186    
   2827000   294.66212      377.70507      18521.587      19320.891      15.971283    
   2828000   294.91358      374.33871      18522.895      19319.193      27.845886    
   2829000   290.54255      364.00079      18539.066      19318.772     -307.90485    
   2830000   303.62019      372.21432      18512.663      19319.294      75.015162    
   2831000   281.78918      375.51315      18543.155      19321.849      23.422234    
   2832000   299.11577      377.6711       18523.439      19329.082      68.515757    
   2833000   310.76116      370.32627      18528.793      19343.753     -298.5812     
   2834000   311.49597      366.92781      18562.43       19375.043     -294.25042    
   2835000   322.94449      377.8407       18551.62       19391.526      30.326527    
   2836000   325.82316      377.8637       18542.613      19386.661      88.096581    
   2837000   320.27655      371.54358      18543.365      19373.157     -51.780076    
   2838000   311.54871      373.49305      18536.32       19355.573     -209.05564    
   2839000   319.81878      365.53421      18518.567      19341.694     -90.144993    
   2840000   309.30902      380.45905      18512.287      19335.302      300.5353     
Loop time of 17.7035 on 48 procs for 50000 steps with 481 atoms

Performance: 12.201 ns/day, 1.967 hours/ns, 2824.306 timesteps/s, 1.358 Matom-step/s
100.0% CPU use with 48 MPI tasks x 1 OpenMP threads

MPI task timing breakdown:
Section |  min time  |  avg time  |  max time  |%varavg| %total
---------------------------------------------------------------
Pair    | 0.017935   | 0.83369    | 4.3964     | 135.1 |  4.71
Bond    | 0.0053787  | 1.0402     | 5.8921     | 152.1 |  5.88
Neigh   | 0.029702   | 0.032784   | 0.03632    |   1.0 |  0.19
Comm    | 6.3936     | 12.882     | 15.803     |  82.2 | 72.77
Output  | 0.010064   | 0.016145   | 0.022011   |   3.0 |  0.09
Modify  | 0.66318    | 2.246      | 7.8569     | 160.5 | 12.69
Other   |            | 0.6524     |            |       |  3.69

Nlocal:        10.0208 ave          50 max           0 min
Histogram: 25 6 9 0 0 1 3 0 0 4
Nghost:        1818.35 ave        2345 max        1175 min
Histogram: 8 0 0 0 24 0 0 0 0 16
Neighs:              0 ave           0 max           0 min
Histogram: 48 0 0 0 0 0 0 0 0 0

Total # of neighbors = 0
Ave neighs/atom = 0
Ave special neighs/atom = 15.567568
Neighbor list builds = 73
Dangerous builds = 0
unfix           myat1
next            cpt
jump            SELF loop
variable        zdes equal  -15+0.60*(${cpt}-1)
variable        zdes equal  -15+0.60*(48-1)
variable        zave equal xcm(H2,z)
fix             mytth2 H2 spring tether ${k1} 2.5 2.5 ${zdes} 0
fix             mytth2 H2 spring tether 0.5 2.5 2.5 ${zdes} 0
fix             mytth2 H2 spring tether 0.5 2.5 2.5 13.2 0
run             10000
Generated 0 of 1 mixed pair_coeff terms from geometric mixing rule
Per MPI rank memory allocation (min/avg/max) = 13.32 | 13.82 | 14.98 Mbytes
   Step          Temp          E_pair         E_mol          TotEng         Press     
   2840000   309.30902      380.45905      18512.287      19335.302      300.5353     
   2841000   299.81025      378.25833      18521.689      19328.912      72.408069    
   2842000   289.64311      367.21438      18538.185      19319.817     -285.89639    
   2843000   292.56664      379.52996      18518.458      19316.589      119.48382    
   2844000   291.90794      373.60568      18526.26       19317.524     -109.06725    
   2845000   296.84182      375.64924      18527.295      19327.662      22.635028    
   2846000   293.57729      370.10059      18555.9        19346.047     -155.86699    
   2847000   314.59889      372.87874      18540.328      19363.331     -153.24578    
   2848000   308.64631      390.91796      18537.053      19369.579      231.58514    
   2849000   317.3584       378.81069      18535.301      19368.185      69.361175    
   2850000   318.67927      366.39929      18538.812      19361.174     -240.56587    
Loop time of 3.39981 on 48 procs for 10000 steps with 481 atoms

Performance: 12.707 ns/day, 1.889 hours/ns, 2941.345 timesteps/s, 1.415 Matom-step/s
100.0% CPU use with 48 MPI tasks x 1 OpenMP threads

MPI task timing breakdown:
Section |  min time  |  avg time  |  max time  |%varavg| %total
---------------------------------------------------------------
Pair    | 0.0034807  | 0.1655     | 0.90392    |  60.3 |  4.87
Bond    | 0.0010725  | 0.20691    | 1.0581     |  67.7 |  6.09
Neigh   | 0.0058496  | 0.0065381  | 0.0072592  |   0.5 |  0.19
Comm    | 1.1318     | 2.4756     | 3.027      |  35.9 | 72.82
Output  | 0.0018767  | 0.0030696  | 0.0042707  |   1.4 |  0.09
Modify  | 0.13197    | 0.41284    | 1.4332     |  66.8 | 12.14
Other   |            | 0.1294     |            |       |  3.81

Nlocal:        10.0208 ave          52 max           0 min
Histogram: 24 10 6 0 1 0 2 2 2 1
Nghost:        1818.35 ave        2347 max        1178 min
Histogram: 8 0 0 0 24 0 0 0 0 16
Neighs:              0 ave           0 max           0 min
Histogram: 48 0 0 0 0 0 0 0 0 0

Total # of neighbors = 0
Ave neighs/atom = 0
Ave special neighs/atom = 15.567568
Neighbor list builds = 16
Dangerous builds = 0
fix             myat1 all ave/time 1000 10 10000 v_zave v_zdes file simulation_data/abpot/${cpt}.dat
fix             myat1 all ave/time 1000 10 10000 v_zave v_zdes file simulation_data/abpot/48.dat
run             50000
Generated 0 of 1 mixed pair_coeff terms from geometric mixing rule
Per MPI rank memory allocation (min/avg/max) = 13.32 | 13.82 | 14.98 Mbytes
   Step          Temp          E_pair         E_mol          TotEng         Press     
   2850000   318.67927      366.39929      18538.812      19361.174     -240.56587    
   2851000   308.91306      375.96053      18525.169      19343.118      4.990458     
   2852000   296.46215      378.52822      18521.916      19324.619      14.042996    
   2853000   296.75466      385.33702      18509.17       19319.1        186.49759    
   2854000   283.30978      368.13343      18542.711      19316.201     -142.13889    
   2855000   297.28978      366.09329      18524.973      19316.426     -173.25802    
   2856000   305.5435       373.61289      18515.031      19325.812      1.3408988    
   2857000   310.91064      378.30517      18517.853      19341.005      153.74694    
   2858000   308.69817      372.25015      18534.271      19348.203     -98.245485    
   2859000   301.91202      365.5903       18553.489      19351.052     -190.13451    
   2860000   305.77444      373.47141      18539.499      19350.469     -91.962353    
   2861000   291.9747       386.83003      18547.324      19351.908      197.18825    
   2862000   301.91977      373.87961      18544.771      19350.634     -46.510808    
   2863000   312.7539       370.42345      18520.636      19338.544     -137.29383    
   2864000   311.84846      367.34781      18508.8        19322.337     -70.993106    
   2865000   290.79545      378.86672      18515.219      19310.153      114.18349    
   2866000   289.21343      378.80025      18510.982      19303.586      135.80448    
   2867000   296.09953      368.47894      18514.367      19306.501     -215.65375    
   2868000   295.23069      366.54386      18526.414      19315.371     -223.37483    
   2869000   295.80126      377.60113      18524.708      19325.538      63.312146    
   2870000   292.45807      379.25529      18542.609      19340.31       84.481178    
   2871000   306.57357      370.98446      18550.212      19359.839     -157.24325    
   2872000   322.06931      372.58894      18532.329      19365.731     -38.639389    
   2873000   335.81921      365.48766      18515.839      19361.813     -192.34175    
   2874000   312.24392      373.8057       18526.612      19347.172     -5.6076246    
   2875000   305.98202      375.7188       18524.778      19338.292      20.418956    
   2876000   286.38197      364.47301      18560.826      19335.051     -332.62755    
   2877000   311.3786       374.66024      18513.842      19334.019     -18.558137    
   2878000   295.71395      373.73514      18533.092      19329.931      14.855992    
   2879000   304.09739      375.72049      18510.368      19321.187      111.43346    
   2880000   292.45361      365.41791      18523.918      19307.776     -122.98418    
   2881000   287.262        366.40992      18517.037      19294.459     -214.13767    
   2882000   297.78618      375.88838      18484.555      19286.512      134.51001    
   2883000   276.2251       375.86213      18511.453      19282.535      42.844926    
   2884000   281.85963      371.83128      18512.801      19287.913     -93.322349    
   2885000   282.41477      362.65602      18536.619      19303.351     -326.25009    
   2886000   309.06587      374.39867      18504.225      19320.832      43.625334    
   2887000   310.07356      378.19837      18513.815      19335.663      184.72533    
   2888000   322.61341      377.45842      18507.053      19346.103      1.4967732    
   2889000   298.46486      370.17958      18552.735      19349.955      3.9180978    
   2890000   309.16222      368.28834      18535.606      19346.24      -136.42748    
   2891000   300.84711      374.92693      18529.472      19334.848      82.513374    
   2892000   290.01685      375.76227      18530.839      19321.555      58.54711     
   2893000   291.5521       364.06003      18523.478      19304.687     -185.58882    
   2894000   284.93219      375.42376      18507.014      19290.115     -72.194819    
   2895000   291.8512       379.87882      18488.816      19286.273      163.64564    
   2896000   273.24785      376.10918      18518.408      19285.477     -20.93082     
   2897000   297.6097       366.51759      18510.126      19302.461     -167.18734    
   2898000   300.10211      370.81678      18530.596      19330.795     -145.36984    
   2899000   300.34515      380.16582      18534.313      19344.21       119.7324     
   2900000   311.4594       377.89728      18528.535      19352.065      78.719556    
Loop time of 18.8195 on 48 procs for 50000 steps with 481 atoms

Performance: 11.477 ns/day, 2.091 hours/ns, 2656.813 timesteps/s, 1.278 Matom-step/s
100.0% CPU use with 48 MPI tasks x 1 OpenMP threads

MPI task timing breakdown:
Section |  min time  |  avg time  |  max time  |%varavg| %total
---------------------------------------------------------------
Pair    | 0.01756    | 0.83833    | 4.3448     | 135.2 |  4.45
Bond    | 0.0054649  | 1.045      | 6.0385     | 152.4 |  5.55
Neigh   | 0.026612   | 0.029163   | 0.032467   |   1.0 |  0.15
Comm    | 7.1242     | 13.817     | 16.93      |  85.8 | 73.42
Output  | 0.010349   | 0.01689    | 0.023148   |   3.2 |  0.09
Modify  | 0.67826    | 2.407      | 8.813      | 179.4 | 12.79
Other   |            | 0.6666     |            |       |  3.54

Nlocal:        10.0208 ave          51 max           0 min
Histogram: 24 12 4 0 0 2 2 0 2 2
Nghost:        1818.35 ave        2347 max        1172 min
Histogram: 8 0 0 0 24 0 0 0 0 16
Neighs:              0 ave           0 max           0 min
Histogram: 48 0 0 0 0 0 0 0 0 0

Total # of neighbors = 0
Ave neighs/atom = 0
Ave special neighs/atom = 15.567568
Neighbor list builds = 61
Dangerous builds = 0
unfix           myat1
next            cpt
jump            SELF loop
variable        zdes equal  -15+0.60*(${cpt}-1)
variable        zdes equal  -15+0.60*(49-1)
variable        zave equal xcm(H2,z)
fix             mytth2 H2 spring tether ${k1} 2.5 2.5 ${zdes} 0
fix             mytth2 H2 spring tether 0.5 2.5 2.5 ${zdes} 0
fix             mytth2 H2 spring tether 0.5 2.5 2.5 13.8 0
run             10000
Generated 0 of 1 mixed pair_coeff terms from geometric mixing rule
Per MPI rank memory allocation (min/avg/max) = 13.32 | 13.82 | 14.98 Mbytes
   Step          Temp          E_pair         E_mol          TotEng         Press     
   2900000   311.4594       377.89728      18528.535      19352.065      78.719556    
   2901000   304.42224      370.2169       18544.517      19350.297     -157.94734    
   2902000   302.9792       361.09689      18547.843      19342.439     -418.66101    
   2903000   317.15428      370.04297      18505.742      19329.566     -18.391284    
   2904000   294.33395      384.50371      18509.386      19315.02       266.77213    
   2905000   286.50956      374.92687      18521.087      19305.949     -20.757136    
   2906000   287.45427      367.40139      18521.935      19300.622     -267.81414    
   2907000   290.2209       369.97105      18520.86       19306.076      1.4188971    
   2908000   303.50659      375.87228      18506.571      19316.697      45.893209    
   2909000   310.94723      377.60346      18517.469      19339.972      129.98607    
   2910000   307.3459       373.92409      18551.321      19364.992     -103.84337    
Loop time of 3.5312 on 48 procs for 10000 steps with 481 atoms

Performance: 12.234 ns/day, 1.962 hours/ns, 2831.896 timesteps/s, 1.362 Matom-step/s
100.0% CPU use with 48 MPI tasks x 1 OpenMP threads

MPI task timing breakdown:
Section |  min time  |  avg time  |  max time  |%varavg| %total
---------------------------------------------------------------
Pair    | 0.0034913  | 0.16563    | 0.89258    |  60.9 |  4.69
Bond    | 0.0010606  | 0.20532    | 1.1782     |  68.9 |  5.81
Neigh   | 0.0054123  | 0.0060686  | 0.0068127  |   0.5 |  0.17
Comm    | 1.2691     | 2.5863     | 3.1518     |  37.5 | 73.24
Output  | 0.0019572  | 0.0031576  | 0.0043357  |   1.3 |  0.09
Modify  | 0.13283    | 0.42989    | 1.5588     |  72.9 | 12.17
Other   |            | 0.1348     |            |       |  3.82

Nlocal:        10.0208 ave          45 max           0 min
Histogram: 24 6 9 1 0 0 1 0 4 3
Nghost:        1818.35 ave        2346 max        1178 min
Histogram: 8 0 0 0 24 0 0 0 0 16
Neighs:              0 ave           0 max           0 min
Histogram: 48 0 0 0 0 0 0 0 0 0

Total # of neighbors = 0
Ave neighs/atom = 0
Ave special neighs/atom = 15.567568
Neighbor list builds = 14
Dangerous builds = 0
fix             myat1 all ave/time 1000 10 10000 v_zave v_zdes file simulation_data/abpot/${cpt}.dat
fix             myat1 all ave/time 1000 10 10000 v_zave v_zdes file simulation_data/abpot/49.dat
run             50000
Generated 0 of 1 mixed pair_coeff terms from geometric mixing rule
Per MPI rank memory allocation (min/avg/max) = 13.32 | 13.82 | 14.98 Mbytes
   Step          Temp          E_pair         E_mol          TotEng         Press     
   2910000   307.3459       373.92409      18551.321      19364.992     -103.84337    
   2911000   323.13744      363.73279      18542.125      19368.199     -144.06179    
   2912000   314.94986      376.27042      18533.044      19359.941      20.155953    
   2913000   319.26538      368.58603      18522.529      19347.917     -88.865733    
   2914000   293.24237      374.80119      18539.293      19333.662      13.530994    
   2915000   291.60379      374.48238      18532.871      19324.577     -25.017507    
   2916000   290.62669      370.37358      18528.119      19314.318     -138.55201    
   2917000   303.0148       374.46369      18504.268      19312.281     -44.418107    
   2918000   300.14953      370.56467      18513.891      19313.906     -88.532628    
   2919000   303.18452      369.68366      18515.255      19318.731     -107.79617    
   2920000   297.6879       376.42344      18529.719      19332.071     -43.457828    
   2921000   328.90172      374.91527      18516.467      19361.971      91.923193    
   2922000   317.95968      374.12093      18547.985      19377.039     -69.16461     
   2923000   311.93717      371.29091      18554.859      19372.467     -166.55554    
   2924000   307.79261      371.8316       18550.762      19362.98       72.641301    
   2925000   302.17732      382.64351      18533.338      19348.333      139.398      
   2926000   299.7256       373.9471       18537.373      19340.164     -74.23946     
   2927000   296.893        370.78783      18533.65       19329.229     -54.609931    
   2928000   293.43164      367.04577      18534.978      19321.862     -146.68871    
   2929000   305.41651      375.13529      18506.198      19318.319      12.013774    
   2930000   289.09217      373.03898      18530.92       19317.589      34.156205    
   2931000   293.62606      371.73024      18525.79       19317.637     -169.80259    
   2932000   302.41995      375.07969      18512.975      19320.754      77.236437    
   2933000   305.28108      370.7949       18526.859      19334.446      62.751553    
   2934000   321.79268      375.98027      18516.4        19352.797      51.03332     
   2935000   317.29652      373.93394      18540.052      19367.97      -58.519113    
   2936000   314.61955      373.69106      18545.023      19368.868     -96.403133    
   2937000   306.826        378.58266      18541.018      19358.604     -1.7256175    
   2938000   301.50349      374.24498      18538.429      19344.062     -210.44731    
   2939000   301.02961      373.85524      18525.169      19329.734      102.35479    
   2940000   304.56307      371.67323      18512.503      19319.941     -75.879302    
   2941000   298.51267      373.17385      18519.637      19319.92      -49.401031    
   2942000   291.46771      384.36653      18518.326      19319.721      122.5907     
   2943000   303.97896      369.86555      18517.883      19322.678      8.193863     
   2944000   294.07129      370.73566      18538.867      19330.357     -159.475      
   2945000   309.06382      370.60404      18526.519      19339.328     -8.5132208    
   2946000   306.85274      379.20341      18527.934      19346.179      5.8180654    
   2947000   322.28304      375.36045      18522.022      19358.501      53.588344    
   2948000   330.56292      367.68154      18535.11       19375.757     -186.03462    
   2949000   326.87587      366.02869      18553.834      19387.553     -152.80137    
   2950000   321.02308      376.6149       18550.651      19386.583     -15.263576    
   2951000   312.04028      391.52589      18524.82       19362.809      409.77692    
   2952000   309.13173      370.96957      18525.625      19338.897     -149.04233    
   2953000   301.91057      366.88918      18529.66       19328.52      -108.79191    
   2954000   289.0859       370.1496       18536.189      19319.959     -148.09918    
   2955000   289.1771       384.50614      18519.131      19317.389      193.52936    
   2956000   290.89161      381.59216      18516.049      19313.846      104.9565     
   2957000   292.26332      370.69568      18526.885      19315.748     -124.62148    
   2958000   298.52986      364.33162      18528.821      19320.286     -284.77807    
   2959000   302.15203      372.02424      18523.072      19327.412      108.67611    
   2960000   310.21754      382.39385      18515.554      19341.803      274.26044    
Loop time of 18.1049 on 48 procs for 50000 steps with 481 atoms

Performance: 11.930 ns/day, 2.012 hours/ns, 2761.689 timesteps/s, 1.328 Matom-step/s
100.0% CPU use with 48 MPI tasks x 1 OpenMP threads

MPI task timing breakdown:
Section |  min time  |  avg time  |  max time  |%varavg| %total
---------------------------------------------------------------
Pair    | 0.019231   | 0.82524    | 4.2532     | 134.6 |  4.56
Bond    | 0.005558   | 1.023      | 5.8549     | 152.1 |  5.65
Neigh   | 0.032751   | 0.036435   | 0.0404     |   1.1 |  0.20
Comm    | 6.7151     | 13.168     | 16.183     |  82.8 | 72.73
Output  | 0.010086   | 0.016108   | 0.021897   |   2.9 |  0.09
Modify  | 0.67602    | 2.3551     | 8.2379     | 165.9 | 13.01
Other   |            | 0.681      |            |       |  3.76

Nlocal:        10.0208 ave          55 max           0 min
Histogram: 26 7 7 0 2 0 2 1 1 2
Nghost:        1818.35 ave        2347 max        1168 min
Histogram: 8 0 0 0 24 0 0 0 0 16
Neighs:              0 ave           0 max           0 min
Histogram: 48 0 0 0 0 0 0 0 0 0

Total # of neighbors = 0
Ave neighs/atom = 0
Ave special neighs/atom = 15.567568
Neighbor list builds = 79
Dangerous builds = 0
unfix           myat1
next            cpt
jump            SELF loop
variable        zdes equal  -15+0.60*(${cpt}-1)
variable        zdes equal  -15+0.60*(50-1)
variable        zave equal xcm(H2,z)
fix             mytth2 H2 spring tether ${k1} 2.5 2.5 ${zdes} 0
fix             mytth2 H2 spring tether 0.5 2.5 2.5 ${zdes} 0
fix             mytth2 H2 spring tether 0.5 2.5 2.5 14.4 0
run             10000
Generated 0 of 1 mixed pair_coeff terms from geometric mixing rule
Per MPI rank memory allocation (min/avg/max) = 13.32 | 13.82 | 14.98 Mbytes
   Step          Temp          E_pair         E_mol          TotEng         Press     
   2960000   310.21754      382.39385      18515.554      19341.803      274.26044    
   2961000   329.31745      369.68388      18518.783      19359.651     -142.33634    
   2962000   312.29226      366.00699      18552.881      19365.712     -371.54795    
   2963000   310.57225      373.17219      18543.493      19361.029      14.325748    
   2964000   315.62182      379.65512      18509.96       19341.204      62.436804    
   2965000   299.28647      376.22462      18512.104      19316.545      168.6821     
   2966000   292.79434      361.05441      18525.324      19305.305     -259.67947    
   2967000   293.91229      368.23812      18516.103      19304.868     -123.57855    
   2968000   280.53289      381.72609      18525.128      19308.238      226.4557     
   2969000   291.40222      381.12636      18515.34       19313.402      164.42236    
   2970000   295.86727      367.20603      18531.581      19322.11      -153.80604    
Loop time of 3.30898 on 48 procs for 10000 steps with 481 atoms

Performance: 13.055 ns/day, 1.838 hours/ns, 3022.075 timesteps/s, 1.454 Matom-step/s
100.0% CPU use with 48 MPI tasks x 1 OpenMP threads

MPI task timing breakdown:
Section |  min time  |  avg time  |  max time  |%varavg| %total
---------------------------------------------------------------
Pair    | 0.0038142  | 0.15921    | 0.95715    |  59.4 |  4.81
Bond    | 0.0010736  | 0.19834    | 1.0179     |  64.9 |  5.99
Neigh   | 0.0043946  | 0.0050575  | 0.0058508  |   0.6 |  0.15
Comm    | 1.0776     | 2.4112     | 2.9476     |  34.4 | 72.87
Output  | 0.0018519  | 0.0030345  | 0.004213   |   1.3 |  0.09
Modify  | 0.14368    | 0.39783    | 1.3568     |  66.3 | 12.02
Other   |            | 0.1343     |            |       |  4.06

Nlocal:        10.0208 ave          50 max           0 min
Histogram: 22 13 5 0 0 1 1 2 3 1
Nghost:        1818.35 ave        2347 max        1182 min
Histogram: 8 0 0 0 24 0 0 0 0 16
Neighs:              0 ave           0 max           0 min
Histogram: 48 0 0 0 0 0 0 0 0 0

Total # of neighbors = 0
Ave neighs/atom = 0
Ave special neighs/atom = 15.567568
Neighbor list builds = 14
Dangerous builds = 0
fix             myat1 all ave/time 1000 10 10000 v_zave v_zdes file simulation_data/abpot/${cpt}.dat
fix             myat1 all ave/time 1000 10 10000 v_zave v_zdes file simulation_data/abpot/50.dat
run             50000
Generated 0 of 1 mixed pair_coeff terms from geometric mixing rule
Per MPI rank memory allocation (min/avg/max) = 13.32 | 13.82 | 14.98 Mbytes
   Step          Temp          E_pair         E_mol          TotEng         Press     
   2970000   295.86727      367.20603      18531.581      19322.11      -153.80604    
   2971000   305.32214      365.17136      18532.154      19334.177     -174.93812    
   2972000   321.79621      372.07708      18512.931      19345.43      -18.279948    
   2973000   307.97567      385.73504      18528.983      19355.366      322.73256    
   2974000   307.84053      373.44102      18547.76       19361.656     -3.4103306    
   2975000   325.11801      366.50671      18538.633      19370.315     -179.17855    
   2976000   322.99575      370.26976      18533.232      19365.64      -170.35702    
   2977000   298.23352      378.83633      18535.402      19340.948      62.319048    
   2978000   298.36936      386.50009      18508.441      19321.845      313.4378     
   2979000   294.41856      373.70809      18515.886      19310.845     -65.68969     
   2980000   289.68917      365.76492      18525.81       19306.059     -104.27661    
   2981000   284.29255      373.54834      18523.025      19303.336     -53.724371    
   2982000   290.51172      380.78004      18505.274      19301.715      164.57119    
   2983000   299.78649      379.72322      18499.566      19308.22       140.32041    
   2984000   312.7279       361.65616      18516.621      19325.724     -292.37365    
   2985000   316.1001       369.81035      18523.852      19345.935     -98.921592    
   2986000   319.0102       379.96432      18520.2        19356.6        175.00835    
   2987000   296.20386      381.30173      18550.343      19355.45      -61.632355    
   2988000   316.01748      375.03163      18518.727      19345.913      110.79363    
   2989000   310.39835      364.01869      18527.488      19335.621     -289.20754    
   2990000   305.1542       370.00231      18522.735      19329.348     -85.120451    
   2991000   310.17948      374.97496      18507.961      19326.737      98.288234    
   2992000   308.1597       374.89494      18508.013      19323.82       60.089022    
   2993000   281.77359      369.5913       18550.4        19323.15      -143.65804    
   2994000   302.71427      366.40213      18523.815      19323.338     -135.74361    
   2995000   293.93234      375.14888      18528.449      19324.153      8.3559047    
   2996000   297.17708      368.68282      18533.358      19327.238     -155.09853    
   2997000   309.3894       373.33308      18513.752      19329.756      61.399048    
   2998000   311.60129      373.66215      18515.621      19335.119     -113.67694    
   2999000   307.90879      382.40141      18522.927      19345.881      289.22607    
   3000000   307.35015      372.04221      18539.264      19351.059     -77.025973    
   3001000   307.28445      365.08738      18541.58       19346.326     -162.17847    
   3002000   303.9896       373.55894      18522.193      19330.697      128.54359    
   3003000   295.17041      372.897        18513.942      19309.166     -70.538951    
   3004000   293.3502       374.81513      18500.847      19295.384      51.437598    
   3005000   299.45305      369.08643      18499.446      19296.986     -34.401086    
   3006000   288.92625      371.82163      18514.566      19299.78      -27.449581    
   3007000   288.61907      370.34936      18530.04       19313.343     -5.8839031    
   3008000   312.27709      369.80004      18508.668      19325.271     -100.03658    
   3009000   303.78443      375.0424       18523.864      19333.558      111.3779     
   3010000   301.02731      371.35494      18537.064      19339.125     -5.5353082    
   3011000   295.76514      374.66125      18544.188      19342.027     -1.2901288    
   3012000   306.75641      370.86269      18531.36       19341.126     -184.08978    
   3013000   307.74469      369.38624      18524.556      19334.26      -53.407189    
   3014000   301.77058      383.68865      18506.177      19321.636      94.273818    
   3015000   297.26721      374.91909      18512.443      19312.689     -19.080534    
   3016000   293.94702      373.52003      18514.584      19308.681     -67.049732    
   3017000   284.74051      370.87644      18527.299      19305.579     -42.916326    
   3018000   296.7398       367.23588      18506.778      19298.586     -251.35054    
   3019000   280.82456      381.25793      18508.58       19291.638      91.560716    
   3020000   280.18833      375.8179       18516.831      19293.539      101.15936    
Loop time of 17.0896 on 48 procs for 50000 steps with 481 atoms

Performance: 12.639 ns/day, 1.899 hours/ns, 2925.762 timesteps/s, 1.407 Matom-step/s
100.0% CPU use with 48 MPI tasks x 1 OpenMP threads

MPI task timing breakdown:
Section |  min time  |  avg time  |  max time  |%varavg| %total
---------------------------------------------------------------
Pair    | 0.0177     | 0.80588    | 4.3597     | 132.1 |  4.72
Bond    | 0.0053621  | 1.0119     | 5.0889     | 150.4 |  5.92
Neigh   | 0.021774   | 0.024624   | 0.027612   |   1.0 |  0.14
Comm    | 6.2965     | 12.377     | 15.243     |  80.6 | 72.42
Output  | 0.010197   | 0.016205   | 0.021993   |   2.9 |  0.09
Modify  | 0.73254    | 2.1855     | 7.7019     | 158.9 | 12.79
Other   |            | 0.6688     |            |       |  3.91

Nlocal:        10.0208 ave          45 max           0 min
Histogram: 23 8 8 1 0 0 0 3 2 3
Nghost:        1818.35 ave        2346 max        1178 min
Histogram: 8 0 0 0 24 0 0 0 0 16
Neighs:              0 ave           0 max           0 min
Histogram: 48 0 0 0 0 0 0 0 0 0

Total # of neighbors = 0
Ave neighs/atom = 0
Ave special neighs/atom = 15.567568
Neighbor list builds = 59
Dangerous builds = 0
unfix           myat1
next            cpt
jump            SELF loop
variable        zdes equal  -15+0.60*(${cpt}-1)
variable        zdes equal  -15+0.60*(51-1)
variable        zave equal xcm(H2,z)
fix             mytth2 H2 spring tether ${k1} 2.5 2.5 ${zdes} 0
fix             mytth2 H2 spring tether 0.5 2.5 2.5 ${zdes} 0
fix             mytth2 H2 spring tether 0.5 2.5 2.5 15 0
run             10000
Generated 0 of 1 mixed pair_coeff terms from geometric mixing rule
Per MPI rank memory allocation (min/avg/max) = 13.32 | 13.82 | 14.98 Mbytes
   Step          Temp          E_pair         E_mol          TotEng         Press     
   3020000   280.18833      375.8179       18516.831      19293.539      101.15936    
   3021000   302.82682      369.79806      18502.979      19306.058     -148.29787    
   3022000   298.05944      370.0694       18531.368      19327.897     -136.40768    
   3023000   315.10387      373.86727      18516.474      19341.188     -88.310182    
   3024000   308.64419      382.6379       18518.288      19342.531      217.27383    
   3025000   307.31037      376.67028      18528.722      19345.088     -0.56431963   
   3026000   296.30049      364.2108       18553.609      19341.763     -227.82577    
   3027000   295.36397      372.90586      18536.016      19331.526      23.37357     
   3028000   288.65047      379.54349      18517.653      19310.195      122.4657     
   3029000   288.11027      376.85457      18500.498      19289.577      89.515902    
   3030000   286.02888      371.35094      18504.562      19285.16      -22.919984    
Loop time of 4.04022 on 48 procs for 10000 steps with 481 atoms

Performance: 10.692 ns/day, 2.245 hours/ns, 2475.110 timesteps/s, 1.191 Matom-step/s
100.0% CPU use with 48 MPI tasks x 1 OpenMP threads

MPI task timing breakdown:
Section |  min time  |  avg time  |  max time  |%varavg| %total
---------------------------------------------------------------
Pair    | 0.0035843  | 0.17406    | 0.91005    |  63.0 |  4.31
Bond    | 0.0010736  | 0.2164     | 1.2771     |  73.0 |  5.36
Neigh   | 0.0085109  | 0.0096105  | 0.010414   |   0.5 |  0.24
Comm    | 1.5382     | 2.9206     | 3.6343     |  41.6 | 72.29
Output  | 0.0024119  | 0.0036337  | 0.0048372  |   1.3 |  0.09
Modify  | 0.15254    | 0.56545    | 2.0358     |  86.8 | 14.00
Other   |            | 0.1505     |            |       |  3.73

Nlocal:        10.0208 ave          56 max           0 min
Histogram: 23 15 2 1 0 1 2 3 0 1
Nghost:        1818.35 ave        2346 max        1180 min
Histogram: 8 0 0 0 24 0 0 0 0 16
Neighs:              0 ave           0 max           0 min
Histogram: 48 0 0 0 0 0 0 0 0 0

Total # of neighbors = 0
Ave neighs/atom = 0
Ave special neighs/atom = 15.567568
Neighbor list builds = 18
Dangerous builds = 0
fix             myat1 all ave/time 1000 10 10000 v_zave v_zdes file simulation_data/abpot/${cpt}.dat
fix             myat1 all ave/time 1000 10 10000 v_zave v_zdes file simulation_data/abpot/51.dat
run             50000
Generated 0 of 1 mixed pair_coeff terms from geometric mixing rule
Per MPI rank memory allocation (min/avg/max) = 13.32 | 13.82 | 14.98 Mbytes
   Step          Temp          E_pair         E_mol          TotEng         Press     
   3030000   286.02888      371.35094      18504.562      19285.16      -22.919984    
   3031000   299.95677      367.97396      18493.27       19290.419     -155.15317    
   3032000   284.27495      373.92783      18516.833      19297.498      81.480156    
   3033000   281.09937      378.72881      18529.446      19310.369      32.295001    
   3034000   308.77418      371.14716      18506.724      19319.662     -79.945812    
   3035000   297.24764      371.47509      18524.595      19321.368     -198.79705    
   3036000   314.65631      373.25561      18501.976      19325.438      10.550341    
   3037000   291.34302      373.38941      18535.214      19325.454      17.979441    
   3038000   311.18681      374.89542      18506.744      19326.882      52.177833    
   3039000   302.25344      373.32405      18521.912      19327.697     -15.605593    
   3040000   299.99957      370.05293      18521.906      19321.195     -95.956537    
   3041000   276.16729      376.9725       18522.027      19294.136      31.287865    
   3042000   290.78428      372.30057      18485.121      19273.473      23.378178    
   3043000   278.29231      374.64494      18499.858      19272.681      78.939934    
   3044000   276.61097      368.51042      18514.33       19278.613     -149.33741    
   3045000   283.69892      376.59509      18511.793      19294.301      78.969277    
   3046000   295.94768      376.39662      18512.727      19312.562      164.55167    
   3047000   298.25112      369.58487      18526.183      19322.502     -89.011151    
   3048000   311.16931      372.62334      18509.197      19327.037      12.0297      
   3049000   299.75965      371.44495      18530.414      19330.751     -102.28685    
   3050000   298.3192       383.73296      18522.642      19333.207      234.29121    
   3051000   314.00061      370.71938      18510.848      19330.836     -90.735788    
   3052000   303.97155      371.64606      18509.815      19316.38      -82.518887    
   3053000   296.57475      372.80034      18502.083      19299.219      86.954488    
   3054000   280.98882      373.42583      18504.273      19279.735     -130.915      
   3055000   281.9999       379.3222       18488.31       19271.114      185.09024    
   3056000   296.40246      365.95087      18484.986      19275.026     -112.44579    
   3057000   293.88283      368.07733      18496.68       19285.241     -149.32684    
   3058000   289.51182      380.91992      18510.991      19306.141      224.83529    
   3059000   296.51208      368.98093      18525.126      19318.353     -85.391386    
   3060000   308.28754      370.85862      18510.62       19322.573     -32.899648    
   3061000   291.25699      373.05652      18534.368      19324.151     -41.425706    
   3062000   311.48625      378.20819      18503.71       19327.589      95.485346    
   3063000   301.89915      370.65644      18520.656      19323.267     -141.77806    
   3064000   305.31927      369.06052      18515.298      19321.206     -56.166051    
   3065000   289.12995      374.91363      18535.814      19324.411     -36.815717    
   3066000   306.02475      377.6105       18510.946      19326.413      122.30247    
   3067000   309.15257      380.35115      18504.142      19326.826     -25.322541    
   3068000   304.67583      364.2097       18520.211      19320.348     -283.71151    
   3069000   298.90243      374.7957       18510.516      19312.977      84.48081     
   3070000   300.21134      375.25925      18507.187      19311.985     -7.5295117    
   3071000   294.33236      371.20531      18519.454      19311.786     -58.688576    
   3072000   292.39063      367.78188      18527.329      19313.46       19.024132    
   3073000   311.66682      368.00776      18493.868      19307.806     -118.4879     
   3074000   290.7338       372.1493       18516.839      19304.967     -44.963094    
   3075000   292.24875      380.96061      18516.737      19315.844      279.57222    
   3076000   286.78224      371.96194      18550.056      19332.343     -80.09679     
   3077000   312.99373      363.63092      18539.881      19351.34      -241.71545    
   3078000   320.61359      376.40527      18522.583      19357.718      158.64233    
   3079000   318.82189      378.76719      18515.51       19350.444      185.67546    
   3080000   303.35453      374.93206      18527.278      19336.246      62.25932     
Loop time of 17.8163 on 48 procs for 50000 steps with 481 atoms

Performance: 12.124 ns/day, 1.980 hours/ns, 2806.425 timesteps/s, 1.350 Matom-step/s
100.0% CPU use with 48 MPI tasks x 1 OpenMP threads

MPI task timing breakdown:
Section |  min time  |  avg time  |  max time  |%varavg| %total
---------------------------------------------------------------
Pair    | 0.01795    | 0.82415    | 4.4416     | 133.0 |  4.63
Bond    | 0.0053819  | 1.0352     | 5.9754     | 153.6 |  5.81
Neigh   | 0.031094   | 0.034951   | 0.039053   |   1.2 |  0.20
Comm    | 6.623      | 12.865     | 15.788     |  81.4 | 72.21
Output  | 0.011205   | 0.017315   | 0.023191   |   2.9 |  0.10
Modify  | 0.74399    | 2.2946     | 7.8752     | 159.6 | 12.88
Other   |            | 0.7454     |            |       |  4.18

Nlocal:        10.0208 ave          54 max           0 min
Histogram: 25 12 3 0 1 3 0 0 2 2
Nghost:        1818.35 ave        2347 max        1169 min
Histogram: 8 0 0 0 24 0 0 0 0 16
Neighs:              0 ave           0 max           0 min
Histogram: 48 0 0 0 0 0 0 0 0 0

Total # of neighbors = 0
Ave neighs/atom = 0
Ave special neighs/atom = 15.567568
Neighbor list builds = 78
Dangerous builds = 0
unfix           myat1
next            cpt
jump            SELF loop

Total wall time: 0:17:59
