# --- log file ---

variable pre equal 112 # desired pressure (Atm)
variable tem equal 300 # desired temperature (K)

variable k1 equal 0.5 # spring constant
variable k2 equal 2.5 # spring constant

units real
atom_style molecular
boundary p p p
neighbor 1.0 bin
neigh_modify delay 3 one 6000
bond_style harmonic
angle_style harmonic
dihedral_style opls
improper_style harmonic
pair_style hybrid lj/cut 14 sg 15 cb 30 # Fluid-fluid interactions have a cutoff of 15 Å, fluid-solid interactions have a cutoff of 30 Å
# *--* C-C parameters *--*
bond_style harmonic
angle_style harmonic
dihedral_style opls
improper_style harmonic
# *--* C-C parameters *--*


# 2. Read the graphite platelet data file and define potentials parameters
read_data       ../geometry/carbonPlatelets/simulation_data/abpot_sys.data  extra/atom/types 1
Reading data file ...
  orthogonal box = (-30 -30 -30) to (30 30 30)
  3 by 4 by 4 MPI processor grid
  reading atoms ...
  480 atoms
  reading velocities ...
  480 velocities
  scanning bonds ...
  2 = max bonds/atom
  scanning angles ...
  3 = max angles/atom
  scanning dihedrals ...
  8 = max dihedrals/atom
  scanning impropers ...
  2 = max impropers/atom
  orthogonal box = (-30 -30 -30) to (30 30 30)
  3 by 4 by 4 MPI processor grid
  reading bonds ...
  676 bonds
  reading angles ...
  1268 angles
  reading dihedrals ...
  2394 dihedrals
  reading impropers ...
  396 impropers
Finding 1-2 1-3 1-4 neighbors ...
  special bond factors lj:    0        0        0       
  special bond factors coul:  0        0        0       
     3 = max # of 1-2 neighbors
     6 = max # of 1-3 neighbors
    18 = max # of 1-4 neighbors
    18 = max # of special neighbors
  special bonds CPU = 0.003 seconds
  read_data CPU = 0.051 seconds
include         PARM.lammps

#////////////////////////////////////////////////////////////////////////////////////////////////////////////////////////////////
#//     Filename: PARM.lammps
#//     File Type: LAMMPS input script
#//     Description: This script defines the parameters for the simulation of hydrogen absorption in graphite platelets.
#//     Author: Edoardo Cabiati
#//     Date: 2024-07-27
#////////////////////////////////////////////////////////////////////////////////////////////////////////////////////////////////

mass 2 2.016 # For now at least, in accordance with the paper by Wang and Johnson,
             # 1998, the hydrogen atoms are regarded as simple spherical atoms

# //////////////////////////////////////    C-C potentials    //////////////////////////////////////
pair_coeff 1 1 lj/cut 0.066 3.4
bond_coeff 1 469 1.4
angle_coeff 1 63 120
dihedral_coeff 1 0 7.25 0 0
improper_coeff 1 5 180
special_bonds lj 0.0 0.0 0.5
Finding 1-2 1-3 1-4 neighbors ...
  special bond factors lj:    0        0        0.5     
  special bond factors coul:  0        0        0       
     3 = max # of 1-2 neighbors
     6 = max # of 1-3 neighbors
    18 = max # of 1-4 neighbors
    18 = max # of special neighbors
  special bonds CPU = 0.001 seconds
# //////////////////////////////////////    C-C potentials    //////////////////////////////////////
# -------------------------------------------------------------------------------------------------
# //////////////////////////////////////    H-H potentials    //////////////////////////////////////
variable alpha equal 1.713          #|
variable sigma equal 1.567          #|
variable gamma equal 0.00993        #|
variable c6 equal 12.14             #|      The parameters are all in atomic units, the conversion to kcal/mol
variable c8 equal 215.2             #|      is performed in the pair_sg.cpp file
variable c9 equal 143.1             #|
variable c10 equal 4813.9           #|
variable rc equal 8.321             #|
pair_coeff 2 2 sg ${alpha} ${sigma} ${gamma} ${c6} ${c8} ${c9} ${c10} ${rc} # H-H potentials
pair_coeff 2 2 sg 1.713 ${sigma} ${gamma} ${c6} ${c8} ${c9} ${c10} ${rc} 
pair_coeff 2 2 sg 1.713 1.567 ${gamma} ${c6} ${c8} ${c9} ${c10} ${rc} 
pair_coeff 2 2 sg 1.713 1.567 0.00993 ${c6} ${c8} ${c9} ${c10} ${rc} 
pair_coeff 2 2 sg 1.713 1.567 0.00993 12.14 ${c8} ${c9} ${c10} ${rc} 
pair_coeff 2 2 sg 1.713 1.567 0.00993 12.14 215.2 ${c9} ${c10} ${rc} 
pair_coeff 2 2 sg 1.713 1.567 0.00993 12.14 215.2 143.1 ${c10} ${rc} 
pair_coeff 2 2 sg 1.713 1.567 0.00993 12.14 215.2 143.1 4813.9 ${rc} 
pair_coeff 2 2 sg 1.713 1.567 0.00993 12.14 215.2 143.1 4813.9 8.321 
#pair_coeff 2 2 sg 1.713 1.567 0.00993 12.14 215.2 143.1 4813.9 8.321 # H-H potentials
# //////////////////////////////////////    H-H potentials    //////////////////////////////////////
# -------------------------------------------------------------------------------------------------
# //////////////////////////////////////    C-H potentials    //////////////////////////////////////
variable sigma_CC equal 3.43 # Å
variable sigma_HH equal 3.075 # Å
variable sigma_CH_geo equal sqrt(${sigma_CC}*${sigma_HH}) # Å
variable sigma_CH_geo equal sqrt(3.43*${sigma_HH}) 
variable sigma_CH_geo equal sqrt(3.43*3.075) 
variable sigma_CH_arit equal 0.5*(${sigma_CC}+${sigma_HH}) # Å
variable sigma_CH_arit equal 0.5*(3.43+${sigma_HH}) 
variable sigma_CH_arit equal 0.5*(3.43+3.075) 

variable P_par equal 0.57 # Å^3
variable P_perp equal 1.995 # Å^3
variable P_h equal 0.81 # Å^3
variable E_h equal 2.337e5*(1/503.23) # K * 1/503.23 kcal/mol/K = kcal/mol
variable E_c equal 1.39254e5*(1/503.23) # K * 1/503.23 kcal/mol/K = kcal/mol

variable epsilon equal 4*v_E_h*v_E_c*v_P_h*(v_P_par+v_P_perp/2)/(v_sigma_CH_geo^6*(v_E_h+v_E_c)) # kcal/mol

pair_coeff 1 2 cb ${epsilon} ${sigma_CH_geo} ${P_par} ${P_perp} # C-H potential
pair_coeff 1 2 cb 0.750549668586509 ${sigma_CH_geo} ${P_par} ${P_perp} 
pair_coeff 1 2 cb 0.750549668586509 3.24765299870537 ${P_par} ${P_perp} 
pair_coeff 1 2 cb 0.750549668586509 3.24765299870537 0.57 ${P_perp} 
pair_coeff 1 2 cb 0.750549668586509 3.24765299870537 0.57 1.995 
#pair_coeff 1 2 lj/cut 0.3025 2.065
# //////////////////////////////////////    C-H potentials    //////////////////////////////////////

# 3. Add a single hydrogen molecule to the system, close to the center of the first platelet
create_atoms    2 single 0 0 -2
Created 1 atoms
  using lattice units in orthogonal box = (-30 -30 -30) to (30 30 30)
  create_atoms CPU = 0.000 seconds

group           C type 1
480 atoms in group C
group           H2 type 2
1 atoms in group H2

# 4. Equilibration
timestep        0.05
fix             mytth1 C spring/self ${k2} # Apply a spring force to the carbon atoms
fix             mytth1 C spring/self 2.5 
velocity        all create ${tem} 48 rot yes mom yes dist gaussian # Initialize velocities
velocity        all create 300 48 rot yes mom yes dist gaussian 
fix             mynpt all npt temp ${tem} ${tem} 100 x ${pre} ${pre} 1000 y ${pre} ${pre} 1000 # Apply NPT ensemble to the system
fix             mynpt all npt temp 300 ${tem} 100 x ${pre} ${pre} 1000 y ${pre} ${pre} 1000 
fix             mynpt all npt temp 300 300 100 x ${pre} ${pre} 1000 y ${pre} ${pre} 1000 
fix             mynpt all npt temp 300 300 100 x 112 ${pre} 1000 y ${pre} ${pre} 1000 
fix             mynpt all npt temp 300 300 100 x 112 112 1000 y ${pre} ${pre} 1000 
fix             mynpt all npt temp 300 300 100 x 112 112 1000 y 112 ${pre} 1000 
fix             mynpt all npt temp 300 300 100 x 112 112 1000 y 112 112 1000 

thermo          1000
dump            dump all atom 1000 simulation_data/absorption_pot.lammpstrj

run             20000

CITE-CITE-CITE-CITE-CITE-CITE-CITE-CITE-CITE-CITE-CITE-CITE-CITE

Your simulation uses code contributions which should be cited:

- Type Label Framework: https://doi.org/10.1021/acs.jpcb.3c08419

@Article{Gissinger24,
 author = {Jacob R. Gissinger, Ilia Nikiforov, Yaser Afshar, Brendon Waters, Moon-ki Choi, Daniel S. Karls, Alexander Stukowski, Wonpil Im, Hendrik Heinz, Axel Kohlmeyer, and Ellad B. Tadmor},
 title = {Type Label Framework for Bonded Force Fields in LAMMPS},
 journal = {J. Phys. Chem. B},
 year =    2024,
 volume =  128,
 number =  13,
 pages =   {3282–-3297}
}

CITE-CITE-CITE-CITE-CITE-CITE-CITE-CITE-CITE-CITE-CITE-CITE-CITE

Generated 0 of 1 mixed pair_coeff terms from geometric mixing rule
Neighbor list info ...
  update: every = 1 steps, delay = 3 steps, check = yes
  max neighbors/atom: 6000, page size: 100000
  master list distance cutoff = 31
  ghost atom cutoff = 31
  binsize = 15.5, bins = 4 4 4
  4 neighbor lists, perpetual/occasional/extra = 4 0 0
  (1) pair lj/cut, perpetual, skip trim from (4)
      attributes: half, newton on, cut 15
      pair build: skip/trim
      stencil: none
      bin: none
  (2) pair sg, perpetual, skip trim from (4)
      attributes: half, newton on, cut 16
      pair build: skip/trim
      stencil: none
      bin: none
  (3) pair cb, perpetual, skip from (4)
      attributes: half, newton on
      pair build: skip
      stencil: none
      bin: none
  (4) neighbor class addition, perpetual
      attributes: half, newton on
      pair build: half/bin/newton
      stencil: half/bin/3d
      bin: standard
Per MPI rank memory allocation (min/avg/max) = 13.28 | 13.37 | 13.93 Mbytes
   Step          Temp          E_pair         E_mol          TotEng         Press          Volume    
         0   300            308.43814      19603.922      20341.597     -432.48369      216000       
      1000   539.28481      474.90214      18930.511      20177.016      925.57319      208246.51    
      2000   513.66516      379.35657      18927.781      20042.084     -577.21644      210322.3     
      3000   452.10534      365.12872      18882.276      19894.272     -553.80306      208897.53    
      4000   398.49888      451.16491      18776.444      19797.776      785.85309      202473.36    
      5000   404.82323      350.66871      18776.756      19706.641     -950.31081      202441.87    
      6000   355.22541      415.01872      18660.894      19584.166      222.34687      195846.89    
      7000   371.94161      396.35915      18621.877      19550.406      136.66262      191938.7     
      8000   320.30518      372.897        18632.833      19464.019     -348.5597       188292.93    
      9000   318.0402       410.79969      18553.518      19419.366      287.58463      182099.95    
     10000   316.19925      372.43749      18560.777      19385.629     -429.95184      178677.27    
     11000   290.1828       392.27167      18528.721      19336.183     -27.470332      173262.06    
     12000   291.25999      389.62663      18522.665      19329.023      84.370129      168839.25    
     13000   274.27332      379.755        18534.843      19307.025     -245.02251      164556.51    
     14000   274.4512       387.95403      18528.256      19308.891     -182.93138      159750.89    
     15000   287.30796      380.23765      18528.43       19319.745     -321.83411      155731.85    
     16000   285.60361      387.39269      18529.507      19325.538     -210.05173      151090.25    
     17000   293.98181      385.79879      18551.823      19358.248     -204.48285      146928.26    
     18000   307.10723      378.3826       18557.936      19375.725     -399.49253      142955.49    
     19000   308.31113      388.42374      18550.442      19379.994     -212.93328      138612.54    
     20000   321.12375      376.41763      18551.171      19387.049     -319.26564      135000.31    
Loop time of 8.14585 on 48 procs for 20000 steps with 481 atoms

Performance: 10.607 ns/day, 2.263 hours/ns, 2455.238 timesteps/s, 1.181 Matom-step/s
99.8% CPU use with 48 MPI tasks x 1 OpenMP threads

MPI task timing breakdown:
Section |  min time  |  avg time  |  max time  |%varavg| %total
---------------------------------------------------------------
Pair    | 0.12211    | 0.46333    | 2.4567     |  83.7 |  5.69
Bond    | 0.003876   | 0.42928    | 2.5951     | 117.3 |  5.27
Neigh   | 0.021495   | 0.023477   | 0.025554   |   0.8 |  0.29
Comm    | 2.2273     | 4.4815     | 6.7195     |  76.4 | 55.02
Output  | 0.0048165  | 0.0095028  | 0.014866   |   3.4 |  0.12
Modify  | 0.7295     | 2.4587     | 5.132      | 113.4 | 30.18
Other   |            | 0.28       |            |       |  3.44

Nlocal:        10.0208 ave          48 max           0 min
Histogram: 22 12 6 0 0 0 2 2 2 2
Nghost:        1818.35 ave        2346 max        1176 min
Histogram: 8 0 0 0 24 0 0 0 0 16
Neighs:              0 ave           0 max           0 min
Histogram: 48 0 0 0 0 0 0 0 0 0

Total # of neighbors = 0
Ave neighs/atom = 0
Ave special neighs/atom = 15.567568
Neighbor list builds = 53
Dangerous builds = 0
unfix           mynpt
unfix           mytth1

# 5. Umbrella sampling
fix             mynvt all nvt temp ${tem} ${tem} 100
fix             mynvt all nvt temp 300 ${tem} 100
fix             mynvt all nvt temp 300 300 100
fix             mytth1 C spring/self ${k2}
fix             mytth1 C spring/self 2.5

variable        cpt loop 51
label           loop
variable        zdes equal  -15+0.30*(${cpt}-1)
variable        zdes equal  -15+0.30*(1-1)
variable        zave equal xcm(H2,z)
fix             mytth2 H2 spring tether ${k1} 2.5 2.5 ${zdes} 0
fix             mytth2 H2 spring tether 0.5 2.5 2.5 ${zdes} 0
fix             mytth2 H2 spring tether 0.5 2.5 2.5 -15 0
run             10000
Generated 0 of 1 mixed pair_coeff terms from geometric mixing rule
Per MPI rank memory allocation (min/avg/max) = 13.32 | 13.7 | 14.98 Mbytes
   Step          Temp          E_pair         E_mol          TotEng         Press     
     20000   321.12375      376.41763      18551.171      19387.049     -319.26564    
     21000   280.33241      327.69598      18643.075      19371.868     -1618.717     
     22000   325.73737      367.06917      18548.632      19381.763     -223.49408    
     23000   283.12995      451.22137      18508.92       19365.24       1624.8853    
     24000   307.95906      404.8415       18512.775      19358.24       656.90208    
     25000   277.96822      334.9992       18602.964      19335.677     -1190.7793    
     26000   282.46753      344.35911      18579.118      19327.629     -921.97814    
     27000   288.78242      406.93204      18507.152      19327.271      649.63162    
     28000   293.03508      428.37123      18490.407      19338.049      1186.1083    
     29000   320.67642      361.92644      18549.47       19370.217     -482.69165    
     30000   299.15881      337.71042      18611.289      19377.032     -1123.4729    
Loop time of 3.22647 on 48 procs for 10000 steps with 481 atoms

Performance: 13.389 ns/day, 1.792 hours/ns, 3099.365 timesteps/s, 1.491 Matom-step/s
100.0% CPU use with 48 MPI tasks x 1 OpenMP threads

MPI task timing breakdown:
Section |  min time  |  avg time  |  max time  |%varavg| %total
---------------------------------------------------------------
Pair    | 0.0034954  | 0.14583    | 0.84093    |  59.6 |  4.52
Bond    | 0.0010193  | 0.18414    | 1.0311     |  66.7 |  5.71
Neigh   | 0.020328   | 0.022349   | 0.023905   |   0.6 |  0.69
Comm    | 1.0906     | 2.3297     | 2.9013     |  40.4 | 72.20
Output  | 0.0017522  | 0.0035947  | 0.005668   |   2.1 |  0.11
Modify  | 0.13767    | 0.422      | 1.6834     |  82.9 | 13.08
Other   |            | 0.1189     |            |       |  3.69

Nlocal:        10.0208 ave          52 max           0 min
Histogram: 23 10 6 1 2 1 2 0 2 1
Nghost:        1818.35 ave        2347 max        1171 min
Histogram: 8 0 0 0 24 0 0 0 0 16
Neighs:              0 ave           0 max           0 min
Histogram: 48 0 0 0 0 0 0 0 0 0

Total # of neighbors = 0
Ave neighs/atom = 0
Ave special neighs/atom = 15.567568
Neighbor list builds = 60
Dangerous builds = 0
fix             myat1 all ave/time 1000 10 10000 v_zave v_zdes file simulation_data/abpot/${cpt}.dat
fix             myat1 all ave/time 1000 10 10000 v_zave v_zdes file simulation_data/abpot/1.dat
run             50000
Generated 0 of 1 mixed pair_coeff terms from geometric mixing rule
Per MPI rank memory allocation (min/avg/max) = 13.32 | 13.71 | 14.98 Mbytes
   Step          Temp          E_pair         E_mol          TotEng         Press     
     30000   299.15881      337.71042      18611.289      19377.032     -1123.4729    
     31000   324.75959      382.61103      18534.039      19381.313      30.562612    
     32000   288.59392      429.37945      18530.105      19372.402      1062.5242    
     33000   294.78643      390.39277      18564.13       19376.3        253.22216    
     34000   296.14487      337.53138      18618.38       19379.632     -1086.8961    
     35000   310.08523      349.55512      18589.373      19382.595     -664.88781    
     36000   295.05769      413.32403      18532.431      19367.92       831.58578    
     37000   275.72341      409.55828      18539.986      19344.046      640.598      
     38000   284.60431      368.87741      18556.724      19332.81      -300.94613    
     39000   277.12284      338.96421      18595.365      19330.834     -919.57697    
     40000   286.96182      382.87041      18545.931      19339.383      153.34487    
     41000   288.63261      406.50568      18535.447      19354.925      639.97342    
     42000   294.89174      386.77162      18565.797      19374.496      111.69569    
     43000   313.64332      357.70809      18582.178      19388.643     -524.14535    
     44000   308.45978      360.19794      18588.049      19389.588     -497.55566    
     45000   311.56635      398.35212      18545.204      19389.342      516.19531    
     46000   301.47519      391.1786       18558.863      19381.389      232.18194    
     47000   303.10395      363.8315       18574.323      19371.832     -498.24192    
     48000   303.89552      360.5712       18567.905      19363.287     -513.25513    
     49000   295.54251      380.07749      18546.654      19349.59       82.240614    
     50000   299.10426      400.34292      18516.8        19345.098      566.326      
     51000   290.79624      372.02992      18560.866      19348.964     -371.26899    
     52000   299.67345      364.88664      18563.939      19357.595     -520.15649    
     53000   290.52236      368.1785       18570.581      19354.436     -223.58926    
     54000   297.39696      388.56578      18541.885      19355.963      223.32811    
     55000   302.22029      384.41975      18546.164      19362.997      147.53534    
     56000   307.6428       363.33594      18566.817      19370.325     -436.48681    
     57000   290.55861      372.19751      18589.186      19377.111     -26.08714     
     58000   307.84146      377.27128      18563.643      19381.371      25.827723    
     59000   307.70061      382.66711      18563.556      19386.477      141.04188    
     60000   301.45641      381.79103      18582.606      19395.718      66.696869    
     61000   315.56809      371.32646      18586.811      19409.649     -207.3457     
     62000   311.3075       373.36653      18593.708      19412.49      -155.1958     
     63000   306.68635      376.84703      18587.704      19403.354     -136.48641    
     64000   306.01521      381.9987       18560.136      19379.978      76.093667    
     65000   301.33725      378.0003       18555.641      19364.792      15.315025    
     66000   297.65503      372.51307      18556.404      19354.799     -203.18381    
     67000   268.49862      374.46439      18590.936      19349.565     -145.14649    
     68000   308.24585      371.11246      18538.84       19350.987     -158.82689    
     69000   273.9668       382.59693      18575.964      19350.55       112.5826     
     70000   294.82444      375.96224      18562.708      19360.501     -83.113134    
     71000   309.06071      369.03154      18562.498      19373.73      -190.16593    
     72000   297.69364      376.32543      18590.068      19392.33      -60.362565    
     73000   312.5381       377.67049      18581.379      19406.226      10.308272    
     74000   309.27272      385.08033      18584.163      19411.747      112.3979     
     75000   328.7558       373.22052      18562.427      19406.028      12.171777    
     76000   299.33363      370.45519      18593.05       19391.788     -209.55529    
     77000   313.54194      378.30345      18557.573      19384.488      25.944099    
     78000   323.44807      381.91738      18531.225      19375.928      176.0529     
     79000   301.84471      379.62388      18557.742      19369.242      12.931287    
     80000   314.77219      372.18826      18536.477      19359.038     -83.801564    
Loop time of 16.0713 on 48 procs for 50000 steps with 481 atoms

Performance: 13.440 ns/day, 1.786 hours/ns, 3111.137 timesteps/s, 1.496 Matom-step/s
100.0% CPU use with 48 MPI tasks x 1 OpenMP threads

MPI task timing breakdown:
Section |  min time  |  avg time  |  max time  |%varavg| %total
---------------------------------------------------------------
Pair    | 0.017417   | 0.72869    | 4.1762     | 136.3 |  4.53
Bond    | 0.0050439  | 0.92162    | 5.0547     | 150.7 |  5.73
Neigh   | 0.043938   | 0.048209   | 0.051757   |   1.0 |  0.30
Comm    | 5.5524     | 11.569     | 14.311     |  91.4 | 71.99
Output  | 0.0087274  | 0.015829   | 0.023318   |   3.7 |  0.10
Modify  | 0.64445    | 2.1954     | 8.7549     | 185.6 | 13.66
Other   |            | 0.5925     |            |       |  3.69

Nlocal:        10.0208 ave          44 max           0 min
Histogram: 22 10 7 1 0 0 0 3 1 4
Nghost:        1818.35 ave        2347 max        1179 min
Histogram: 8 0 0 0 24 0 0 0 0 16
Neighs:              0 ave           0 max           0 min
Histogram: 48 0 0 0 0 0 0 0 0 0

Total # of neighbors = 0
Ave neighs/atom = 0
Ave special neighs/atom = 15.567568
Neighbor list builds = 129
Dangerous builds = 0
unfix           myat1
next            cpt
jump            SELF loop
variable        zdes equal  -15+0.30*(${cpt}-1)
variable        zdes equal  -15+0.30*(2-1)
variable        zave equal xcm(H2,z)
fix             mytth2 H2 spring tether ${k1} 2.5 2.5 ${zdes} 0
fix             mytth2 H2 spring tether 0.5 2.5 2.5 ${zdes} 0
fix             mytth2 H2 spring tether 0.5 2.5 2.5 -14.7 0
run             10000
Generated 0 of 1 mixed pair_coeff terms from geometric mixing rule
Per MPI rank memory allocation (min/avg/max) = 13.32 | 13.72 | 14.98 Mbytes
   Step          Temp          E_pair         E_mol          TotEng         Press     
     80000   314.77219      372.18826      18536.477      19359.038     -83.801564    
     81000   300.84119      372.12015      18542.033      19344.593     -26.20941     
     82000   298.46843      370.15504      18536.437      19333.638     -231.82611    
     83000   289.53271      386.4096       18527.594      19328.264      231.90673    
     84000   296.9813       379.34074      18530.678      19334.937      133.14471    
     85000   307.29205      369.38775      18540.513      19349.571     -111.81608    
     86000   290.86313      355.84436      18604.473      19376.481     -605.01346    
     87000   307.24826      385.97409      18568.624      19394.206      120.34284    
     88000   298.05994      403.12313      18562.332      19391.916      631.98851    
     89000   293.4797       367.3824       18596.817      19384.107     -277.40647    
     90000   302.195        356.12405      18590.715      19379.216     -519.41108    
Loop time of 3.17442 on 48 procs for 10000 steps with 481 atoms

Performance: 13.609 ns/day, 1.764 hours/ns, 3150.182 timesteps/s, 1.515 Matom-step/s
100.0% CPU use with 48 MPI tasks x 1 OpenMP threads

MPI task timing breakdown:
Section |  min time  |  avg time  |  max time  |%varavg| %total
---------------------------------------------------------------
Pair    | 0.0033449  | 0.14526    | 0.85342    |  61.2 |  4.58
Bond    | 0.0010035  | 0.18411    | 0.96218    |  67.1 |  5.80
Neigh   | 0.0070115  | 0.0076855  | 0.0082478  |   0.4 |  0.24
Comm    | 1.0842     | 2.2989     | 2.8564     |  41.2 | 72.42
Output  | 0.0016447  | 0.002856   | 0.0040969  |   1.5 |  0.09
Modify  | 0.12624    | 0.4182     | 1.7277     |  84.3 | 13.17
Other   |            | 0.1175     |            |       |  3.70

Nlocal:        10.0208 ave          47 max           0 min
Histogram: 24 9 7 0 0 0 1 4 0 3
Nghost:        1818.88 ave        2348 max        1178 min
Histogram: 8 0 0 0 24 0 0 0 0 16
Neighs:              0 ave           0 max           0 min
Histogram: 48 0 0 0 0 0 0 0 0 0

Total # of neighbors = 0
Ave neighs/atom = 0
Ave special neighs/atom = 15.567568
Neighbor list builds = 20
Dangerous builds = 0
fix             myat1 all ave/time 1000 10 10000 v_zave v_zdes file simulation_data/abpot/${cpt}.dat
fix             myat1 all ave/time 1000 10 10000 v_zave v_zdes file simulation_data/abpot/2.dat
run             50000
Generated 0 of 1 mixed pair_coeff terms from geometric mixing rule
Per MPI rank memory allocation (min/avg/max) = 13.32 | 13.72 | 14.98 Mbytes
   Step          Temp          E_pair         E_mol          TotEng         Press     
     90000   302.195        356.12405      18590.715      19379.216     -519.41108    
     91000   306.02758      367.02757      18572.576      19377.465     -253.31193    
     92000   295.39908      384.88224      18552.968      19360.504      134.07194    
     93000   292.70591      394.79269      18526.943      19340.536      371.35882    
     94000   301.60269      365.75807      18530.657      19327.945     -302.8363     
     95000   286.69127      362.16487      18552.436      19324.796     -390.28967    
     96000   282.17301      374.44577      18550.968      19329.143     -136.62619    
     97000   293.45687      389.42251      18535.462      19344.76       367.72185    
     98000   293.78924      384.08866      18560.693      19365.132      263.38977    
     99000   302.11156      358.77243      18592.038      19383.069     -487.41865    
    100000   316.54427      373.09936      18564.344      19390.351     -95.727815    
    101000   308.03839      390.29746      18553.513      19384.548      294.84605    
    102000   313.65225      382.37042      18542.073      19373.214      223.54071    
    103000   301.8457       377.93923      18551.938      19361.754     -2.345485     
    104000   295.35561      360.99433      18564.963      19348.549     -385.59921    
    105000   299.77844      373.85388      18535.87       19338.643     -109.66371    
    106000   301.89441      390.69971      18510.955      19333.602      238.36229    
    107000   292.62108      380.29179      18531.694      19330.665      256.96675    
    108000   300.90368      368.12604      18537.375      19336.031     -243.57313    
    109000   315.20725      368.86458      18526.279      19346.138     -152.20696    
    110000   296.30858      383.38959      18546.327      19353.672      115.171      
    111000   305.24796      388.03613      18533.208      19357.989      138.15887    
    112000   303.22167      375.03083      18547.894      19356.771     -62.105394    
    113000   294.37632      363.60068      18569.87       19354.661     -275.7297     
    114000   289.75354      376.85745      18559.178      19350.612     -96.001709    
    115000   294.43359      382.01926      18547.685      19350.977      176.29094    
    116000   303.00654      380.19297      18539.859      19353.59      -35.084236    
    117000   285.28172      360.34154      18590.631      19359.15      -313.55869    
    118000   312.06973      370.11187      18546.878      19363.496     -230.20216    
    119000   309.1937       375.15637      18553.941      19371.489      9.1878497    
    120000   305.28638      387.76423      18549.591      19374.156      158.01316    
    121000   299.57618      367.14707      18580.184      19375.961     -228.66767    
    122000   298.48921      367.64237      18582.522      19377.24      -166.37541    
    123000   303.81507      382.46784      18555.274      19372.437      148.03364    
    124000   309.23165      379.13303      18540.134      19361.712      106.47426    
    125000   309.30831      369.45098      18532.624      19344.63      -186.78114    
    126000   281.28619      370.34231      18555.94       19328.743     -198.23894    
    127000   297.40312      370.40895      18529.458      19325.388     -19.447668    
    128000   294.12959      381.27882      18527.147      19329.263      193.33258    
    129000   290.26807      368.26943      18558.553      19342.135     -92.919636    
    130000   296.07634      368.6225       18570.432      19362.677     -177.94984    
    131000   310.1971       374.97898      18553.122      19371.927     -121.241      
    132000   307.07856      383.67063      18545.81       19368.845      100.6855     
    133000   324.93882      386.14216      18519.279      19370.34       221.73314    
    134000   302.79739      365.54331      18568.939      19367.721     -336.18806    
    135000   291.5518       363.24793      18577.816      19358.213     -249.11391    
    136000   288.96836      376.28508      18557.742      19347.48       142.85923    
    137000   287.61593      383.90177      18542.414      19337.834      205.90801    
    138000   290.75547      377.70547      18539.465      19333.18       6.9825873    
    139000   299.85031      367.2346       18532.202      19328.459     -137.41604    
    140000   290.18007      372.87718      18538.149      19326.212      23.427881    
Loop time of 16.2525 on 48 procs for 50000 steps with 481 atoms

Performance: 13.290 ns/day, 1.806 hours/ns, 3076.446 timesteps/s, 1.480 Matom-step/s
100.0% CPU use with 48 MPI tasks x 1 OpenMP threads

MPI task timing breakdown:
Section |  min time  |  avg time  |  max time  |%varavg| %total
---------------------------------------------------------------
Pair    | 0.017287   | 0.72834    | 4.4709     | 138.5 |  4.48
Bond    | 0.0050328  | 0.92205    | 5.0868     | 151.3 |  5.67
Neigh   | 0.031582   | 0.034666   | 0.037114   |   0.8 |  0.21
Comm    | 5.3727     | 11.774     | 14.7       |  92.8 | 72.44
Output  | 0.0084817  | 0.014239   | 0.019728   |   3.0 |  0.09
Modify  | 0.63288    | 2.1912     | 8.9275     | 190.6 | 13.48
Other   |            | 0.5885     |            |       |  3.62

Nlocal:        10.0208 ave          54 max           0 min
Histogram: 26 10 4 0 0 3 0 2 1 2
Nghost:        1818.35 ave        2348 max        1169 min
Histogram: 8 0 0 0 24 0 0 0 0 16
Neighs:              0 ave           0 max           0 min
Histogram: 48 0 0 0 0 0 0 0 0 0

Total # of neighbors = 0
Ave neighs/atom = 0
Ave special neighs/atom = 15.567568
Neighbor list builds = 90
Dangerous builds = 0
unfix           myat1
next            cpt
jump            SELF loop
variable        zdes equal  -15+0.30*(${cpt}-1)
variable        zdes equal  -15+0.30*(3-1)
variable        zave equal xcm(H2,z)
fix             mytth2 H2 spring tether ${k1} 2.5 2.5 ${zdes} 0
fix             mytth2 H2 spring tether 0.5 2.5 2.5 ${zdes} 0
fix             mytth2 H2 spring tether 0.5 2.5 2.5 -14.4 0
run             10000
Generated 0 of 1 mixed pair_coeff terms from geometric mixing rule
Per MPI rank memory allocation (min/avg/max) = 13.32 | 13.73 | 14.98 Mbytes
   Step          Temp          E_pair         E_mol          TotEng         Press     
    140000   290.18007      372.87718      18538.149      19326.212      23.427881    
    141000   290.12498      387.33774      18532.905      19335.35       180.53109    
    142000   311.37024      378.73927      18530.144      19354.388      139.70502    
    143000   311.78137      365.51938      18557.495      19369.108     -343.39896    
    144000   306.8286       373.07556      18566.716      19378.798     -159.1617     
    145000   311.99903      376.6151       18558.974      19381.994      27.24026     
    146000   302.65638      379.14353      18565.85       19378.031     -30.522505    
    147000   308.30282      371.95853      18553.148      19366.223     -43.244685    
    148000   292.13694      367.8718       18561.909      19347.767     -239.17356    
    149000   293.32906      376.60537      18535.05       19331.347     -57.150335    
    150000   290.3725       381.60256      18528.359      19325.423      178.09824    
Loop time of 3.23533 on 48 procs for 10000 steps with 481 atoms

Performance: 13.353 ns/day, 1.797 hours/ns, 3090.872 timesteps/s, 1.487 Matom-step/s
100.0% CPU use with 48 MPI tasks x 1 OpenMP threads

MPI task timing breakdown:
Section |  min time  |  avg time  |  max time  |%varavg| %total
---------------------------------------------------------------
Pair    | 0.0034319  | 0.14555    | 0.88924    |  62.4 |  4.50
Bond    | 0.0010183  | 0.18436    | 1.0166     |  67.9 |  5.70
Neigh   | 0.0054173  | 0.0059454  | 0.0063203  |   0.3 |  0.18
Comm    | 1.0114     | 2.3554     | 2.9356     |  42.0 | 72.80
Output  | 0.0016952  | 0.0027627  | 0.0038199  |   1.3 |  0.09
Modify  | 0.12504    | 0.42377    | 1.7869     |  86.5 | 13.10
Other   |            | 0.1176     |            |       |  3.63

Nlocal:        10.0208 ave          48 max           0 min
Histogram: 22 11 7 0 0 1 1 1 2 3
Nghost:        1818.35 ave        2347 max        1175 min
Histogram: 8 0 0 0 24 0 0 0 0 16
Neighs:              0 ave           0 max           0 min
Histogram: 48 0 0 0 0 0 0 0 0 0

Total # of neighbors = 0
Ave neighs/atom = 0
Ave special neighs/atom = 15.567568
Neighbor list builds = 15
Dangerous builds = 0
fix             myat1 all ave/time 1000 10 10000 v_zave v_zdes file simulation_data/abpot/${cpt}.dat
fix             myat1 all ave/time 1000 10 10000 v_zave v_zdes file simulation_data/abpot/3.dat
run             50000
Generated 0 of 1 mixed pair_coeff terms from geometric mixing rule
Per MPI rank memory allocation (min/avg/max) = 13.32 | 13.73 | 14.98 Mbytes
   Step          Temp          E_pair         E_mol          TotEng         Press     
    150000   290.3725       381.60256      18528.359      19325.423      178.09824    
    151000   280.96893      374.49297      18547.923      19324.423     -213.77867    
    152000   274.51815      377.53499      18561.154      19331.466      47.071208    
    153000   288.4748       378.50174      18553.23       19344.478      11.053782    
    154000   290.7819       373.82152      18565.663      19355.532     -94.621235    
    155000   304.44583      374.94872      18547.213      19357.759     -17.630695    
    156000   304.28338      379.04434      18547.488      19361.897      29.548887    
    157000   305.59805      381.09325      18546.946      19365.285      136.8831     
    158000   298.22476      371.61307      18565.059      19363.368     -53.790898    
    159000   297.96067      377.82459      18546.654      19350.798     -23.485052    
    160000   299.50435      377.00985      18518.665      19324.202      33.435945    
    161000   289.4767       372.4394       18522.702      19309.321     -77.159294    
    162000   283.71414      373.51309      18527.837      19307.286     -80.178002    
    163000   289.20274      375.8796       18528.138      19317.806     -47.402897    
    164000   299.53746      370.6783       18538.56       19337.813     -28.74711     
    165000   303.27834      373.08411      18543.335      19350.346     -93.224378    
    166000   313.35905      378.56446      18531.945      19358.86       44.522735    
    167000   307.09113      376.82715      18546.908      19363.118      99.467962    
    168000   291.08349      367.22366      18578.781      19362.483     -170.99792    
    169000   299.30954      371.00433      18562.745      19361.998     -105.07232    
    170000   293.69159      378.08448      18558.039      19356.334      74.959522    
    171000   298.1327       376.93397      18543.916      19347.415      64.615357    
    172000   297.66378      378.6108       18525.281      19329.786      136.68967    
    173000   286.34451      369.62468      18535.975      19315.299     -170.64655    
    174000   288.97071      375.34587      18518.85       19307.652      54.599256    
    175000   290.15554      380.47874      18519.145      19314.775      74.67374     
    176000   296.15277      382.35329      18527.165      19333.251      145.94743    
    177000   283.39332      377.74904      18567.156      19350.381     -106.82208    
    178000   303.63021      373.95333      18550.255      19358.639     -158.11844    
    179000   303.00888      372.7885       18551.769      19358.099     -103.15282    
    180000   321.17184      381.37226      18515.919      19356.82       152.6477     
    181000   283.61795      376.94365      18570.255      19352.996     -26.956034    
    182000   299.43171      370.36386      18554.238      19353.026     -52.088681    
    183000   298.86504      366.34641      18550.519      19344.478     -138.41481    
    184000   304.3697       375.65908      18516.128      19327.276      120.1834     
    185000   270.8018       376.79367      18542.937      19307.191      49.166744    
    186000   288.46208      369.2354       18516.82       19298.784     -99.211049    
    187000   297.13457      369.38683      18508.26       19302.783     -46.987452    
    188000   292.92116      375.28701      18524.294      19318.689      17.496225    
    189000   285.81284      376.48662      18555.448      19340.872      38.478131    
    190000   319.95166      375.76585      18520.586      19354.135      38.406082    
    191000   303.09029      364.32022      18556.964      19354.942     -373.3366     
    192000   299.88155      375.22877      18548.478      19352.774      17.957634    
    193000   313.27258      378.09619      18521.39       19347.713      76.030909    
    194000   301.4316       381.02981      18525.716      19338.031      116.44485    
    195000   289.38767      370.52169      18543.26       19327.834     -183.94161    
    196000   300.40731      369.96183      18521.353      19321.134     -43.302132    
    197000   297.10977      377.76976      18508.171      19311.042      11.184296    
    198000   288.41907      376.22575      18517.165      19306.058     -24.07502     
    199000   295.91885      370.05326      18513.407      19306.858     -91.685328    
    200000   296.89436      371.99182      18522.629      19319.414     -67.641322    
Loop time of 15.9267 on 48 procs for 50000 steps with 481 atoms

Performance: 13.562 ns/day, 1.770 hours/ns, 3139.386 timesteps/s, 1.510 Matom-step/s
100.0% CPU use with 48 MPI tasks x 1 OpenMP threads

MPI task timing breakdown:
Section |  min time  |  avg time  |  max time  |%varavg| %total
---------------------------------------------------------------
Pair    | 0.017144   | 0.7268     | 4.2513     | 136.7 |  4.56
Bond    | 0.005032   | 0.91983    | 4.6128     | 149.6 |  5.78
Neigh   | 0.025907   | 0.028404   | 0.03038    |   0.7 |  0.18
Comm    | 5.7192     | 11.503     | 14.342     |  91.4 | 72.22
Output  | 0.0083659  | 0.013656   | 0.018931   |   2.8 |  0.09
Modify  | 0.64096    | 2.1456     | 8.7166     | 186.1 | 13.47
Other   |            | 0.5898     |            |       |  3.70

Nlocal:        10.0208 ave          46 max           0 min
Histogram: 23 11 5 1 0 0 0 3 2 3
Nghost:        1818.35 ave        2347 max        1181 min
Histogram: 8 0 0 0 24 0 0 0 0 16
Neighs:              0 ave           0 max           0 min
Histogram: 48 0 0 0 0 0 0 0 0 0

Total # of neighbors = 0
Ave neighs/atom = 0
Ave special neighs/atom = 15.567568
Neighbor list builds = 75
Dangerous builds = 0
unfix           myat1
next            cpt
jump            SELF loop
variable        zdes equal  -15+0.30*(${cpt}-1)
variable        zdes equal  -15+0.30*(4-1)
variable        zave equal xcm(H2,z)
fix             mytth2 H2 spring tether ${k1} 2.5 2.5 ${zdes} 0
fix             mytth2 H2 spring tether 0.5 2.5 2.5 ${zdes} 0
fix             mytth2 H2 spring tether 0.5 2.5 2.5 -14.1 0
run             10000
Generated 0 of 1 mixed pair_coeff terms from geometric mixing rule
Per MPI rank memory allocation (min/avg/max) = 13.32 | 13.74 | 14.98 Mbytes
   Step          Temp          E_pair         E_mol          TotEng         Press     
    200000   296.89436      371.99182      18522.629      19319.414     -67.641322    
    201000   302.42659      372.58622      18536.184      19341.479     -77.257604    
    202000   310.216        388.4125       18524.426      19356.692      305.56456    
    203000   317.25961      370.93975      18540.797      19365.668     -237.59011    
    204000   317.69345      372.40128      18536.093      19363.047     -133.8854     
    205000   307.4306       376.61395      18531.483      19347.965     -70.958391    
    206000   315.87302      375.04273      18506.771      19333.761     -22.78725     
    207000   289.14221      382.21601      18524.273      19320.191      185.21586    
    208000   293.28578      376.6948       18518.137      19314.462     -9.6779024    
    209000   292.21178      371.9395       18525.403      19315.436     -370.44832    
    210000   291.20801      374.34218      18523.254      19314.253     -28.332395    
Loop time of 3.17427 on 48 procs for 10000 steps with 481 atoms

Performance: 13.609 ns/day, 1.763 hours/ns, 3150.335 timesteps/s, 1.515 Matom-step/s
100.0% CPU use with 48 MPI tasks x 1 OpenMP threads

MPI task timing breakdown:
Section |  min time  |  avg time  |  max time  |%varavg| %total
---------------------------------------------------------------
Pair    | 0.0034603  | 0.14552    | 0.8851     |  61.5 |  4.58
Bond    | 0.0010024  | 0.18394    | 0.9587     |  67.0 |  5.79
Neigh   | 0.0057256  | 0.006288   | 0.0066941  |   0.4 |  0.20
Comm    | 1.0714     | 2.2769     | 2.8643     |  40.1 | 71.73
Output  | 0.0016605  | 0.0026746  | 0.0037083  |   1.3 |  0.08
Modify  | 0.12557    | 0.44142    | 1.7053     |  80.4 | 13.91
Other   |            | 0.1175     |            |       |  3.70

Nlocal:        10.0208 ave          44 max           0 min
Histogram: 22 10 8 0 0 0 0 3 1 4
Nghost:        1818.35 ave        2348 max        1179 min
Histogram: 8 0 0 0 24 0 0 0 0 16
Neighs:              0 ave           0 max           0 min
Histogram: 48 0 0 0 0 0 0 0 0 0

Total # of neighbors = 0
Ave neighs/atom = 0
Ave special neighs/atom = 15.567568
Neighbor list builds = 17
Dangerous builds = 0
fix             myat1 all ave/time 1000 10 10000 v_zave v_zdes file simulation_data/abpot/${cpt}.dat
fix             myat1 all ave/time 1000 10 10000 v_zave v_zdes file simulation_data/abpot/4.dat
run             50000
Generated 0 of 1 mixed pair_coeff terms from geometric mixing rule
Per MPI rank memory allocation (min/avg/max) = 13.32 | 13.74 | 14.98 Mbytes
   Step          Temp          E_pair         E_mol          TotEng         Press     
    210000   291.20801      374.34218      18523.254      19314.253     -28.332395    
    211000   287.7978       375.37309      18528.51       19315.661     -109.14744    
    212000   308.11898      379.10915      18507.218      19327.18       67.696213    
    213000   301.69958      373.25799      18530.336      19335.263     -133.95601    
    214000   292.66463      372.89145      18546.907      19338.539     -135.92173    
    215000   308.71359      379.09995      18519.194      19339.998      52.747651    
    216000   309.9131       374.92922      18521.094      19339.443     -37.490298    
    217000   302.95062      379.47507      18521.981      19334.914      54.03964     
    218000   309.01145      373.36057      18516.68       19332.17      -106.73926    
    219000   308.33931      375.02986      18510.29       19326.488      69.266466    
    220000   297.32588      372.70903      18518.972      19317.091      18.371845    
    221000   295.23714      371.25655      18517.373      19311.051     -105.643      
    222000   287.60103      371.64669      18525.511      19308.654     -154.57363    
    223000   285.60381      378.15654      18527.213      19314.008      65.473707    
    224000   292.83213      376.12568      18528.551      19323.657     -57.405254    
    225000   301.11491      368.87931      18537.042      19336.754     -101.61308    
    226000   312.10309      379.54531      18523.42       19349.519     -27.524247    
    227000   309.46471      383.188        18530.125      19356.091      64.141808    
    228000   304.5547       371.60187      18549.261      19356.617     -57.15375     
    229000   303.14133      370.69083      18539.975      19344.397     -36.10485     
    230000   292.22663      365.50571      18544.274      19327.894     -142.43746    
    231000   289.05234      375.57728      18516.447      19305.597     -45.477677    
    232000   290.99788      375.93174      18501.712      19294          16.258252    
    233000   290.73881      375.96495      18502.297      19294.247      23.806605    
    234000   294.94079      371.0316       18511.976      19305.006     -54.35008     
    235000   298.14439      371.26337      18520.703      19318.548     -145.52873    
    236000   296.39193      371.4224       18534.698      19330.194     -67.025591    
    237000   304.06313      376.08529      18530.572      19341.708      6.6053492    
    238000   303.95548      380.02014      18536.187      19351.104      168.86518    
    239000   298.78961      372.77035      18556.472      19356.747     -92.053667    
    240000   302.82487      371.18476      18553.954      19358.417     -83.305572    
    241000   306.36948      376.09771      18539.819      19354.267      63.00003     
    242000   306.46198      377.83776      18520.367      19336.688      54.190984    
    243000   283.9671       372.60545      18530.279      19309.181     -174.84259    
    244000   273.15677      365.83403      18539.844      19296.507     -253.81785    
    245000   279.80103      373.65739      18523.04       19297.033     -45.66608     
    246000   298.02159      374.39637      18506.301      19307.103      21.226043    
    247000   276.07377      370.02325      18552.334      19317.36      -180.29778    
    248000   292.47135      375.78619      18538.237      19332.488     -88.838937    
    249000   305.84767      368.04814      18532.904      19338.555     -162.47765    
    250000   304.19895      381.83209      18526.042      19343.119      141.1804     
    251000   289.18783      375.2162       18554.401      19343.384      91.564028    
    252000   296.07814      371.96064      18547.246      19342.832     -130.76374    
    253000   314.66934      376.49817      18518.881      19345.604      158.94664    
    254000   305.45268      374.22741      18528.882      19340.148     -15.408633    
    255000   300.89038      372.7984       18522.374      19325.683     -9.5273447    
    256000   293.71625      377.38799      18505.362      19302.996      6.7086435    
    257000   296.41038      369.695        18489.577      19283.373     -8.0570074    
    258000   276.91374      367.0973       18516.169      19279.471     -135.80809    
    259000   285.77856      375.62377      18504.321      19288.833      91.248984    
    260000   294.29321      370.27195      18516.716      19308.06      -201.59279    
Loop time of 15.9184 on 48 procs for 50000 steps with 481 atoms

Performance: 13.569 ns/day, 1.769 hours/ns, 3141.013 timesteps/s, 1.511 Matom-step/s
100.0% CPU use with 48 MPI tasks x 1 OpenMP threads

MPI task timing breakdown:
Section |  min time  |  avg time  |  max time  |%varavg| %total
---------------------------------------------------------------
Pair    | 0.017385   | 0.72582    | 4.2654     | 137.0 |  4.56
Bond    | 0.0050595  | 0.91875    | 4.714      | 149.5 |  5.77
Neigh   | 0.030409   | 0.033361   | 0.035697   |   0.8 |  0.21
Comm    | 5.4536     | 11.454     | 14.385     |  90.0 | 71.95
Output  | 0.0080963  | 0.013121   | 0.01853    |   2.8 |  0.08
Modify  | 0.63464    | 2.1838     | 8.6457     | 181.6 | 13.72
Other   |            | 0.5899     |            |       |  3.71

Nlocal:        10.0208 ave          54 max           0 min
Histogram: 24 11 5 0 1 0 3 2 1 1
Nghost:        1818.35 ave        2346 max        1169 min
Histogram: 8 0 0 0 24 0 0 0 0 16
Neighs:              0 ave           0 max           0 min
Histogram: 48 0 0 0 0 0 0 0 0 0

Total # of neighbors = 0
Ave neighs/atom = 0
Ave special neighs/atom = 15.567568
Neighbor list builds = 89
Dangerous builds = 0
unfix           myat1
next            cpt
jump            SELF loop
variable        zdes equal  -15+0.30*(${cpt}-1)
variable        zdes equal  -15+0.30*(5-1)
variable        zave equal xcm(H2,z)
fix             mytth2 H2 spring tether ${k1} 2.5 2.5 ${zdes} 0
fix             mytth2 H2 spring tether 0.5 2.5 2.5 ${zdes} 0
fix             mytth2 H2 spring tether 0.5 2.5 2.5 -13.8 0
run             10000
Generated 0 of 1 mixed pair_coeff terms from geometric mixing rule
Per MPI rank memory allocation (min/avg/max) = 13.32 | 13.74 | 14.98 Mbytes
   Step          Temp          E_pair         E_mol          TotEng         Press     
    260000   294.29321      370.27195      18516.716      19308.06      -201.59279    
    261000   292.17425      372.08295      18534.351      19324.473     -122.11501    
    262000   291.93934      374.72245      18540.994      19333.42      -136.87139    
    263000   283.14237      377.68455      18558.99       19341.792      86.25217     
    264000   299.6527       378.49573      18539.329      19346.565     -44.459501    
    265000   303.54695      371.93436      18542.474      19348.72      -140.28637    
    266000   303.74398      371.24742      18546.764      19352.605     -152.68927    
    267000   309.29168      372.45149      18537.426      19352.408     -30.90968     
    268000   301.2164       382.75588      18529.832      19343.565      211.60947    
    269000   297.22534      371.13789      18533.588      19329.993     -275.47629    
    270000   293.78239      368.64524      18523.289      19312.275     -190.52864    
Loop time of 3.08623 on 48 procs for 10000 steps with 481 atoms

Performance: 13.998 ns/day, 1.715 hours/ns, 3240.203 timesteps/s, 1.559 Matom-step/s
100.0% CPU use with 48 MPI tasks x 1 OpenMP threads

MPI task timing breakdown:
Section |  min time  |  avg time  |  max time  |%varavg| %total
---------------------------------------------------------------
Pair    | 0.0034473  | 0.14546    | 0.81214    |  60.8 |  4.71
Bond    | 0.0010047  | 0.18363    | 0.90806    |  66.6 |  5.95
Neigh   | 0.0059948  | 0.0065963  | 0.0070618  |   0.4 |  0.21
Comm    | 1.0562     | 2.2023     | 2.7811     |  39.5 | 71.36
Output  | 0.0016321  | 0.0026634  | 0.0037232  |   1.3 |  0.09
Modify  | 0.12655    | 0.42733    | 1.6479     |  77.4 | 13.85
Other   |            | 0.1183     |            |       |  3.83

Nlocal:        10.0208 ave          49 max           0 min
Histogram: 23 10 7 0 0 0 3 1 3 1
Nghost:        1818.35 ave        2347 max        1174 min
Histogram: 8 0 0 0 24 0 0 0 0 16
Neighs:              0 ave           0 max           0 min
Histogram: 48 0 0 0 0 0 0 0 0 0

Total # of neighbors = 0
Ave neighs/atom = 0
Ave special neighs/atom = 15.567568
Neighbor list builds = 18
Dangerous builds = 0
fix             myat1 all ave/time 1000 10 10000 v_zave v_zdes file simulation_data/abpot/${cpt}.dat
fix             myat1 all ave/time 1000 10 10000 v_zave v_zdes file simulation_data/abpot/5.dat
run             50000
Generated 0 of 1 mixed pair_coeff terms from geometric mixing rule
Per MPI rank memory allocation (min/avg/max) = 13.32 | 13.74 | 14.98 Mbytes
   Step          Temp          E_pair         E_mol          TotEng         Press     
    270000   293.78239      368.64524      18523.289      19312.275     -190.52864    
    271000   304.21692      377.23481      18490.408      19302.913     -42.442541    
    272000   265.63297      376.87929      18542.563      19299.507     -41.312047    
    273000   280.67367      375.23209      18530.206      19307.023      56.680103    
    274000   297.30604      368.30915      18529.298      19322.989     -115.67759    
    275000   305.26947      370.31321      18536.511      19343.6       -239.43847    
    276000   305.79022      377.75711      18539.396      19354.674      44.301622    
    277000   310.503        382.76821      18523.871      19350.903      211.54918    
    278000   292.58349      373.64099      18557.272      19349.539     -39.160001    
    279000   309.05131      368.68938      18538.739      19349.615     -252.69588    
    280000   311.74262      371.31568      18524.655      19342.009     -34.136154    
    281000   307.37226      381.35579      18510.812      19331.952      37.705413    
    282000   308.65697      378.88251      18500.695      19321.201      148.86652    
    283000   296.42826      372.904        18516.027      19313.057      48.604075    
    284000   277.66247      368.03751      18537.094      19302.408     -289.45368    
    285000   288.1235       374.53383      18505.034      19291.812      52.087475    
    286000   283.93337      390.14268      18489.725      19286.117      397.24431    
    287000   285.58021      371.62135      18505.98       19286.206     -148.45727    
    288000   263.70857      361.26468      18563.54       19302.116     -313.40178    
    289000   303.06626      374.89127      18517.369      19325.884      138.08984    
    290000   309.44798      376.81558      18519.109      19338.68       12.023812    
    291000   308.64262      379.77385      18524.306      19345.683      49.829461    
    292000   307.74915      370.7466       18538.272      19349.342     -86.383037    
    293000   303.73267      362.89534      18554.235      19351.707     -305.8174     
    294000   308.23171      375.60767      18534.787      19351.409      119.51099    
    295000   300.86064      377.4418       18535.828      19343.738      243.49614    
    296000   304.83457      370.52755      18525.033      19331.714     -143.73776    
    297000   309.42605      371.62994      18506.652      19321.006     -17.065565    
    298000   295.47327      370.26932      18516.059      19309.088      15.091052    
    299000   292.36084      375.22068      18513.763      19307.291      62.350566    
    300000   284.98219      379.61796      18529.371      19316.738      89.814412    
    301000   289.74189      379.25395      18543.157      19336.97       49.073376    
    302000   279.55755      372.42224      18582.733      19355.143     -140.10319    
    303000   295.93643      374.57441      18566.441      19364.438     -35.785438    
    304000   305.06817      377.30863      18554.205      19368.002     -51.36845     
    305000   286.57046      375.53192      18583.697      19369.251     -111.01205    
    306000   315.84276      373.56874      18539.657      19365.13      -169.6555     
    307000   306.52315      375.47707      18535.822      19349.869     -70.770255    
    308000   296.74903      372.59914      18536.576      19333.76      -17.252233    
    309000   290.60431      369.06015      18534.413      19319.267     -54.779655    
    310000   302.83757      371.76258      18508.063      19313.123     -62.671341    
    311000   275.73997      373.52875      18544.308      19312.363     -71.031721    
    312000   282.40967      376.5341       18541.009      19321.612     -10.73562     
    313000   294.44371      380.64455      18528.293      19330.224      160.96016    
    314000   299.28571      364.33494      18544.544      19337.093     -271.11555    
    315000   295.88156      368.03237      18552.217      19343.593     -134.77732    
    316000   289.83293      378.41047      18555.05       19348.15       26.221801    
    317000   295.11914      380.29555      18550.076      19352.625      92.574494    
    318000   302.1686       377.48651      18551.371      19361.196     -19.939031    
    319000   313.67335      368.0554       18551.488      19368.343     -181.26164    
    320000   308.75252      371.28081      18559.739      19372.78      -82.176181    
Loop time of 15.7408 on 48 procs for 50000 steps with 481 atoms

Performance: 13.722 ns/day, 1.749 hours/ns, 3176.454 timesteps/s, 1.528 Matom-step/s
100.0% CPU use with 48 MPI tasks x 1 OpenMP threads

MPI task timing breakdown:
Section |  min time  |  avg time  |  max time  |%varavg| %total
---------------------------------------------------------------
Pair    | 0.017317   | 0.72543    | 4.3784     | 136.2 |  4.61
Bond    | 0.005009   | 0.91846    | 4.4779     | 148.9 |  5.83
Neigh   | 0.024015   | 0.026395   | 0.028361   |   0.7 |  0.17
Comm    | 5.884      | 11.283     | 14.224     |  89.2 | 71.68
Output  | 0.0079935  | 0.01297    | 0.018197   |   2.8 |  0.08
Modify  | 0.63021    | 2.183      | 8.5204     | 178.9 | 13.87
Other   |            | 0.5913     |            |       |  3.76

Nlocal:        10.0208 ave          50 max           0 min
Histogram: 21 12 7 0 0 1 2 1 2 2
Nghost:        1818.35 ave        2347 max        1173 min
Histogram: 8 0 0 0 24 0 0 0 0 16
Neighs:              0 ave           0 max           0 min
Histogram: 48 0 0 0 0 0 0 0 0 0

Total # of neighbors = 0
Ave neighs/atom = 0
Ave special neighs/atom = 15.567568
Neighbor list builds = 71
Dangerous builds = 0
unfix           myat1
next            cpt
jump            SELF loop
variable        zdes equal  -15+0.30*(${cpt}-1)
variable        zdes equal  -15+0.30*(6-1)
variable        zave equal xcm(H2,z)
fix             mytth2 H2 spring tether ${k1} 2.5 2.5 ${zdes} 0
fix             mytth2 H2 spring tether 0.5 2.5 2.5 ${zdes} 0
fix             mytth2 H2 spring tether 0.5 2.5 2.5 -13.5 0
run             10000
Generated 0 of 1 mixed pair_coeff terms from geometric mixing rule
Per MPI rank memory allocation (min/avg/max) = 13.32 | 13.74 | 14.98 Mbytes
   Step          Temp          E_pair         E_mol          TotEng         Press     
    320000   308.75252      371.28081      18559.739      19372.78      -82.176181    
    321000   318.52317      374.69973      18538.499      19368.938      8.9421032    
    322000   295.97734      382.7292       18548.895      19355.105      198.05583    
    323000   291.50666      366.51725      18555.406      19339.008     -371.16243    
    324000   285.93435      370.85568      18544.466      19324.434     -35.919701    
    325000   290.60666      378.93748      18522.52       19317.255      89.479517    
    326000   300.22505      377.21024      18512.733      19319.502     -37.078832    
    327000   295.20069      376.72156      18521.279      19320.37       54.282836    
    328000   283.67313      374.8273       18549.579      19330.283     -39.196095    
    329000   305.58721      375.40904      18541.931      19354.57      -38.42148     
    330000   306.98529      371.44295      18561.438      19372.112     -72.906578    
Loop time of 3.17247 on 48 procs for 10000 steps with 481 atoms

Performance: 13.617 ns/day, 1.762 hours/ns, 3152.115 timesteps/s, 1.516 Matom-step/s
100.0% CPU use with 48 MPI tasks x 1 OpenMP threads

MPI task timing breakdown:
Section |  min time  |  avg time  |  max time  |%varavg| %total
---------------------------------------------------------------
Pair    | 0.0034606  | 0.14502    | 0.89593    |  61.0 |  4.57
Bond    | 0.0010012  | 0.18386    | 0.95666    |  67.1 |  5.80
Neigh   | 0.0072129  | 0.0078961  | 0.0084354  |   0.4 |  0.25
Comm    | 1.132      | 2.2823     | 2.8649     |  40.2 | 71.94
Output  | 0.0016492  | 0.0026862  | 0.0038076  |   1.3 |  0.08
Modify  | 0.12495    | 0.43213    | 1.7304     |  81.5 | 13.62
Other   |            | 0.1186     |            |       |  3.74

Nlocal:        10.0208 ave          45 max           0 min
Histogram: 25 5 9 1 0 0 1 2 1 4
Nghost:        1818.35 ave        2347 max        1178 min
Histogram: 8 0 0 0 24 0 0 0 0 16
Neighs:              0 ave           0 max           0 min
Histogram: 48 0 0 0 0 0 0 0 0 0

Total # of neighbors = 0
Ave neighs/atom = 0
Ave special neighs/atom = 15.567568
Neighbor list builds = 21
Dangerous builds = 0
fix             myat1 all ave/time 1000 10 10000 v_zave v_zdes file simulation_data/abpot/${cpt}.dat
fix             myat1 all ave/time 1000 10 10000 v_zave v_zdes file simulation_data/abpot/6.dat
run             50000
Generated 0 of 1 mixed pair_coeff terms from geometric mixing rule
Per MPI rank memory allocation (min/avg/max) = 13.32 | 13.74 | 14.98 Mbytes
   Step          Temp          E_pair         E_mol          TotEng         Press     
    330000   306.98529      371.44295      18561.438      19372.112     -72.906578    
    331000   288.08214      379.79844      18580.261      19372.244      63.548683    
    332000   312.80596      373.97756      18550.348      19371.885      43.806647    
    333000   315.15572      369.88724      18544.25       19365.059     -88.518185    
    334000   298.63748      373.34439      18553.102      19353.734     -112.8445     
    335000   310.40281      367.94455      18529.851      19341.916     -133.04677    
    336000   311.8861       377.72266      18507.395      19331.361      222.36158    
    337000   293.52715      374.91121      18529.43       19324.316     -57.937479    
    338000   305.54074      364.73706      18523.144      19325.045     -110.86449    
    339000   304.71352      371.57819      18517.695      19325.254     -18.361836    
    340000   297.64802      369.46502      18530.09       19325.426     -167.70044    
    341000   307.49143      381.74688      18505.712      19327.414      267.9754     
    342000   295.22914      374.64286      18531.976      19329.03      -66.232418    
    343000   297.48175      366.63036      18537.749      19330.013     -61.400753    
    344000   294.38535      368.9836       18541.719      19331.906     -182.80119    
    345000   294.11654      379.08963      18535.779      19335.687      108.98275    
    346000   298.02001      377.69983      18535.924      19340.027      155.05255    
    347000   281.68889      367.92713      18575.635      19346.6       -240.29806    
    348000   304.9317       362.71116      18557.249      19356.253     -387.54568    
    349000   318.16036      375.98677      18536.443      19367.65      -30.459292    
    350000   311.23846      384.37076      18544.223      19373.91       291.56756    
    351000   315.06699      373.02673      18553.375      19377.196     -99.477225    
    352000   308.36139      365.70632      18560.438      19367.344     -338.20104    
    353000   294.01942      368.77999      18554.567      19344.027     -153.47202    
    354000   300.33966      378.86054      18519.557      19328.14      -13.146062    
    355000   300.22875      392.17766      18499.876      19321.618      429.28588    
    356000   302.00735      363.84251      18525.407      19321.358     -265.05107    
    357000   312.46291      369.70923      18512.733      19329.511     -89.616932    
    358000   296.83881      375.7989       18538.056      19338.569     -5.7452882    
    359000   298.40447      380.50031      18541          19348.454      154.86458    
    360000   309.4389       379.38514      18541.613      19363.74       68.102576    
    361000   319.92446      374.02357      18550.953      19382.721     -76.771007    
    362000   307.84336      369.97148      18582.194      19392.624     -75.185417    
    363000   316.46556      375.21748      18564.103      19392.116     -148.05199    
    364000   307.16725      381.9656       18542.606      19364.063      172.22306    
    365000   293.78106      378.91716      18535.198      19334.454      51.989276    
    366000   299.27422      369.81603      18528.545      19326.559     -81.982744    
    367000   301.53884      370.92326      18524.09       19326.451     -97.943062    
    368000   306.54352      376.77727      18510.391      19325.767     -20.390067    
    369000   281.04894      375.30141      18552.541      19329.965      76.227467    
    370000   290.38858      380.50837      18542.489      19338.483      42.59593     
    371000   322.02155      366.81841      18526.382      19353.945     -131.41419    
    372000   313.15843      362.79774      18549.681      19360.543     -342.57999    
    373000   310.1282       381.49265      18538.238      19363.459      96.916485    
    374000   306.65794      378.36664      18548.447      19365.577     -37.773759    
    375000   299.24601      374.5048       18559.603      19362.266     -70.566819    
    376000   300.58731      369.99119      18557.509      19357.577     -35.884236    
    377000   294.95966      370.4295       18551.787      19344.242     -211.11533    
    378000   290.0595       376.51577      18538.297      19329.827      88.59697     
    379000   273.35865      383.37444      18541.546      19316.039      119.43623    
    380000   291.53202      362.84204      18534.007      19313.97      -359.4051     
Loop time of 15.9147 on 48 procs for 50000 steps with 481 atoms

Performance: 13.572 ns/day, 1.768 hours/ns, 3141.759 timesteps/s, 1.511 Matom-step/s
100.0% CPU use with 48 MPI tasks x 1 OpenMP threads

MPI task timing breakdown:
Section |  min time  |  avg time  |  max time  |%varavg| %total
---------------------------------------------------------------
Pair    | 0.017425   | 0.72402    | 4.2832     | 135.6 |  4.55
Bond    | 0.0050147  | 0.91959    | 4.5889     | 149.4 |  5.78
Neigh   | 0.024928   | 0.027361   | 0.029354   |   0.7 |  0.17
Comm    | 6.1282     | 11.438     | 14.399     |  90.2 | 71.87
Output  | 0.0081181  | 0.013066   | 0.01818    |   2.8 |  0.08
Modify  | 0.63014    | 2.1998     | 8.7317     | 183.2 | 13.82
Other   |            | 0.593      |            |       |  3.73

Nlocal:        10.0208 ave          47 max           0 min
Histogram: 25 7 7 1 0 2 0 1 1 4
Nghost:        1818.35 ave        2347 max        1178 min
Histogram: 8 0 0 0 24 0 0 0 0 16
Neighs:              0 ave           0 max           0 min
Histogram: 48 0 0 0 0 0 0 0 0 0

Total # of neighbors = 0
Ave neighs/atom = 0
Ave special neighs/atom = 15.567568
Neighbor list builds = 72
Dangerous builds = 0
unfix           myat1
next            cpt
jump            SELF loop
variable        zdes equal  -15+0.30*(${cpt}-1)
variable        zdes equal  -15+0.30*(7-1)
variable        zave equal xcm(H2,z)
fix             mytth2 H2 spring tether ${k1} 2.5 2.5 ${zdes} 0
fix             mytth2 H2 spring tether 0.5 2.5 2.5 ${zdes} 0
fix             mytth2 H2 spring tether 0.5 2.5 2.5 -13.2 0
run             10000
Generated 0 of 1 mixed pair_coeff terms from geometric mixing rule
Per MPI rank memory allocation (min/avg/max) = 13.32 | 13.74 | 14.98 Mbytes
   Step          Temp          E_pair         E_mol          TotEng         Press     
    380000   291.53202      362.84204      18534.007      19313.97      -359.4051     
    381000   287.84122      370.70487      18538.097      19320.642     -23.369832    
    382000   284.60697      378.17027      18550.821      19336.204      32.460379    
    383000   304.89191      375.65046      18542.635      19354.521      71.243398    
    384000   299.00144      373.8017       18560.121      19361.731     -93.430766    
    385000   311.69454      370.70712      18543.82       19360.496     -238.18011    
    386000   299.28806      370.7629       18560.326      19359.307      1.9158352    
    387000   293.68822      383.56394      18550.454      19354.223      43.831214    
    388000   296.42532      372.91808      18552.889      19349.929     -61.363107    
    389000   309.08416      369.22266      18535.054      19346.511     -42.996573    
    390000   295.65663      373.77731      18536.801      19333.6       -52.856985    
Loop time of 3.19673 on 48 procs for 10000 steps with 481 atoms

Performance: 13.514 ns/day, 1.776 hours/ns, 3128.196 timesteps/s, 1.505 Matom-step/s
100.0% CPU use with 48 MPI tasks x 1 OpenMP threads

MPI task timing breakdown:
Section |  min time  |  avg time  |  max time  |%varavg| %total
---------------------------------------------------------------
Pair    | 0.0034727  | 0.14518    | 0.88593    |  61.3 |  4.54
Bond    | 0.0010052  | 0.18365    | 0.94024    |  66.6 |  5.75
Neigh   | 0.004208   | 0.0046065  | 0.0049362  |   0.3 |  0.14
Comm    | 1.1666     | 2.2992     | 2.9041     |  40.9 | 71.92
Output  | 0.0016392  | 0.0026397  | 0.0036805  |   1.3 |  0.08
Modify  | 0.12286    | 0.44342    | 1.7611     |  83.3 | 13.87
Other   |            | 0.1181     |            |       |  3.69

Nlocal:        10.0208 ave          50 max           0 min
Histogram: 22 10 8 0 0 2 0 2 2 2
Nghost:        1818.35 ave        2347 max        1173 min
Histogram: 8 0 0 0 24 0 0 0 0 16
Neighs:              0 ave           0 max           0 min
Histogram: 48 0 0 0 0 0 0 0 0 0

Total # of neighbors = 0
Ave neighs/atom = 0
Ave special neighs/atom = 15.567568
Neighbor list builds = 12
Dangerous builds = 0
fix             myat1 all ave/time 1000 10 10000 v_zave v_zdes file simulation_data/abpot/${cpt}.dat
fix             myat1 all ave/time 1000 10 10000 v_zave v_zdes file simulation_data/abpot/7.dat
run             50000
Generated 0 of 1 mixed pair_coeff terms from geometric mixing rule
Per MPI rank memory allocation (min/avg/max) = 13.32 | 13.74 | 14.98 Mbytes
   Step          Temp          E_pair         E_mol          TotEng         Press     
    390000   295.65663      373.77731      18536.801      19333.6       -52.856985    
    391000   291.65483      376.65861      18519.334      19313.29      -16.338911    
    392000   282.37679      376.49017      18517.259      19297.771      27.79341     
    393000   286.1318       371.64618      18514.571      19295.611     -133.52125    
    394000   295.02309      370.16783      18515.36       19307.643     -30.96874     
    395000   285.87442      372.25364      18546.43       19327.71      -198.35483    
    396000   293.05583      378.54752      18545.318      19343.167      108.78165    
    397000   297.32385      377.01719      18542.795      19345.22      -40.88394     
    398000   302.73224      366.12041      18543.11       19342.376     -268.81397    
    399000   299.41246      378.7938       18535.957      19343.147      57.769924    
    400000   292.91296      381.34334      18545.245      19345.684      21.165282    
    401000   302.7546       377.78958      18536.763      19347.73       94.041616    
    402000   303.84663      371.58393      18543.674      19349.999     -185.87893    
    403000   289.89335      369.81269      18563.014      19347.603     -103.32433    
    404000   298.5872       375.68809      18540.341      19343.244     -58.462001    
    405000   300.13251      380.64546      18526.915      19336.987      98.326422    
    406000   280.85176      379.48167      18550.391      19331.712      126.92202    
    407000   293.29757      367.57745      18537.931      19325.155     -149.1105     
    408000   284.58946      375.92492      18538.862      19321.974      52.684969    
    409000   308.97873      376.35425      18509.033      19327.47       108.60838    
    410000   305.5289       376.19945      18528.542      19341.889      77.970614    
    411000   307.76114      374.04461      18545.276      19359.661     -64.92142     
    412000   299.98649      368.60762      18576.04       19373.865     -177.2919     
    413000   318.47973      377.47734      18545.416      19378.571      83.19256     
    414000   301.99372      380.1786       18558.453      19370.721      66.716359    
    415000   293.91488      373.30395      18570.47       19364.304     -199.6985     
    416000   315.69601      369.30929      18532.579      19353.583     -216.42256    
    417000   298.59111      373.48601      18542.029      19342.736     -56.212717    
    418000   286.03296      375.03667      18547.42       19331.71      -12.28299     
    419000   306.90796      375.98224      18510.231      19325.334      21.237866    
    420000   271.89404      374.91177      18562.257      19326.191     -159.43941    
    421000   289.32755      373.13782      18542.443      19329.547     -68.321781    
    422000   290.32112      375.4144       18541.461      19332.264     -62.70955     
    423000   288.17088      374.70039      18551.943      19338.956      28.080783    
    424000   292.58675      377.19969      18548.604      19344.433     -79.185272    
    425000   305.73199      371.2894       18543.918      19352.645      66.107737    
    426000   304.02909      375.05436      18549.651      19359.707      26.704996    
    427000   301.23671      374.96061      18559.81       19365.776     -29.704317    
    428000   313.47512      379.72439      18540.024      19368.265      114.86379    
    429000   316.33924      374.59897      18532.4        19359.613      43.484104    
    430000   293.87179      372.6708       18547.89       19341.029     -154.45109    
    431000   290.58269      373.33216      18533.739      19322.833      23.609125    
    432000   288.90129      375.84157      18525.468      19314.666      38.952116    
    433000   284.16068      376.1212       18531.188      19313.883      52.712538    
    434000   282.86478      374.81453      18539.602      19319.137     -97.646047    
    435000   306.71801      368.38371      18525.769      19333.002     -116.51498    
    436000   298.42703      372.58503      18547.166      19346.737     -41.073073    
    437000   298.72048      375.51102      18557.971      19360.888      8.6760454    
    438000   321.6537       373.86627      18530.326      19364.411     -90.686438    
    439000   305.9648       379.33756      18544.357      19361.466      58.873968    
    440000   304.12446      373.33246      18547.658      19356.128     -100.11068    
Loop time of 15.8208 on 48 procs for 50000 steps with 481 atoms

Performance: 13.653 ns/day, 1.758 hours/ns, 3160.391 timesteps/s, 1.520 Matom-step/s
100.0% CPU use with 48 MPI tasks x 1 OpenMP threads

MPI task timing breakdown:
Section |  min time  |  avg time  |  max time  |%varavg| %total
---------------------------------------------------------------
Pair    | 0.017493   | 0.72379    | 4.243      | 136.5 |  4.57
Bond    | 0.0050182  | 0.91928    | 4.5405     | 149.4 |  5.81
Neigh   | 0.025528   | 0.027936   | 0.029932   |   0.7 |  0.18
Comm    | 5.5977     | 11.439     | 14.299     |  90.4 | 72.30
Output  | 0.0080367  | 0.013028   | 0.018312   |   2.8 |  0.08
Modify  | 0.63631    | 2.107      | 8.5727     | 183.4 | 13.32
Other   |            | 0.5911     |            |       |  3.74

Nlocal:        10.0208 ave          45 max           0 min
Histogram: 22 7 11 0 0 0 1 2 3 2
Nghost:        1818.35 ave        2347 max        1178 min
Histogram: 8 0 0 0 24 0 0 0 0 16
Neighs:              0 ave           0 max           0 min
Histogram: 48 0 0 0 0 0 0 0 0 0

Total # of neighbors = 0
Ave neighs/atom = 0
Ave special neighs/atom = 15.567568
Neighbor list builds = 72
Dangerous builds = 0
unfix           myat1
next            cpt
jump            SELF loop
variable        zdes equal  -15+0.30*(${cpt}-1)
variable        zdes equal  -15+0.30*(8-1)
variable        zave equal xcm(H2,z)
fix             mytth2 H2 spring tether ${k1} 2.5 2.5 ${zdes} 0
fix             mytth2 H2 spring tether 0.5 2.5 2.5 ${zdes} 0
fix             mytth2 H2 spring tether 0.5 2.5 2.5 -12.9 0
run             10000
Generated 0 of 1 mixed pair_coeff terms from geometric mixing rule
Per MPI rank memory allocation (min/avg/max) = 13.32 | 13.74 | 14.98 Mbytes
   Step          Temp          E_pair         E_mol          TotEng         Press     
    440000   304.12446      373.33246      18547.658      19356.128     -100.11068    
    441000   293.02546      377.91572      18552.131      19349.305     -56.064069    
    442000   297.87725      374.34114      18541.996      19342.536      36.34776     
    443000   301.23554      371.57935      18532.359      19334.943     -162.66395    
    444000   290.31546      371.90723      18538.525      19325.812     -143.53267    
    445000   279.56737      376.19838      18539.31       19315.511      68.964686    
    446000   290.79961      374.68598      18522.437      19313.196      76.284918    
    447000   298.94144      366.81646      18524.145      19318.684     -214.02687    
    448000   285.06233      376.40622      18546.664      19330.934      32.077619    
    449000   296.94983      376.3452       18548.647      19349.865     -43.016636    
    450000   308.45995      384.64154      18539.784      19365.767      222.01893    
Loop time of 3.20277 on 48 procs for 10000 steps with 481 atoms

Performance: 13.488 ns/day, 1.779 hours/ns, 3122.294 timesteps/s, 1.502 Matom-step/s
100.0% CPU use with 48 MPI tasks x 1 OpenMP threads

MPI task timing breakdown:
Section |  min time  |  avg time  |  max time  |%varavg| %total
---------------------------------------------------------------
Pair    | 0.0034826  | 0.14522    | 0.87823    |  61.1 |  4.53
Bond    | 0.0010299  | 0.18419    | 0.9849     |  67.1 |  5.75
Neigh   | 0.0075205  | 0.0082363  | 0.0088312  |   0.4 |  0.26
Comm    | 1.1231     | 2.3163     | 2.894      |  41.0 | 72.32
Output  | 0.0016156  | 0.0026371  | 0.0036867  |   1.3 |  0.08
Modify  | 0.12511    | 0.4287     | 1.7609     |  84.1 | 13.39
Other   |            | 0.1175     |            |       |  3.67

Nlocal:        10.0208 ave          51 max           0 min
Histogram: 21 18 1 0 0 1 3 1 1 2
Nghost:        1818.35 ave        2347 max        1172 min
Histogram: 8 0 0 0 24 0 0 0 0 16
Neighs:              0 ave           0 max           0 min
Histogram: 48 0 0 0 0 0 0 0 0 0

Total # of neighbors = 0
Ave neighs/atom = 0
Ave special neighs/atom = 15.567568
Neighbor list builds = 22
Dangerous builds = 0
fix             myat1 all ave/time 1000 10 10000 v_zave v_zdes file simulation_data/abpot/${cpt}.dat
fix             myat1 all ave/time 1000 10 10000 v_zave v_zdes file simulation_data/abpot/8.dat
run             50000
Generated 0 of 1 mixed pair_coeff terms from geometric mixing rule
Per MPI rank memory allocation (min/avg/max) = 13.32 | 13.74 | 14.98 Mbytes
   Step          Temp          E_pair         E_mol          TotEng         Press     
    450000   308.45995      384.64154      18539.784      19365.767      222.01893    
    451000   320.70226      374.86712      18537.122      19370.846      45.601356    
    452000   323.63374      370.63869      18533.422      19367.112     -142.20415    
    453000   315.14014      372.54304      18533.071      19356.513     -125.8788     
    454000   299.51759      384.3115       18525.162      19338.02       209.3635     
    455000   291.62452      372.91236      18528.317      19318.483     -35.436044    
    456000   298.61629      370.37879      18514.992      19312.627     -205.70058    
    457000   282.18784      369.3199       18542.981      19316.052     -165.36905    
    458000   297.68249      377.45881      18516.451      19319.831      232.12392    
    459000   298.24093      372.45383      18524.803      19323.976     -119.93733    
    460000   301.37973      368.46669      18534.751      19334.428     -122.99851    
    461000   302.18901      373.11569      18538.467      19343.951      38.654036    
    462000   319.38291      371.15063      18523.056      19351.176     -59.403261    
    463000   308.54311      377.70471      18534.828      19353.993      63.928063    
    464000   310.44881      374.49125      18534.645      19353.323     -5.9782327    
    465000   291.79274      368.4098       18565.224      19351.127     -99.702348    
    466000   307.99895      371.10688      18540.761      19352.55      -108.42923    
    467000   306.56757      375.03109      18537.058      19350.722      34.155798    
    468000   292.8552       372.21786      18553.251      19344.482     -130.84398    
    469000   299.38466      372.27183      18538.877      19339.505     -85.394822    
    470000   295.45535      376.70926      18534.979      19334.423      74.127658    
    471000   281.60236      371.9598       18550.756      19325.629     -67.740973    
    472000   285.68853      375.92095      18536.698      19321.379      25.985173    
    473000   302.17871      378.25708      18520.367      19330.978      29.825212    
    474000   309.07196      374.24724      18528.229      19344.693     -36.392076    
    475000   325.22734      374.81013      18519.408      19359.55       61.449123    
    476000   310.77373      370.72522      18551.26       19366.636     -171.69591    
    477000   302.78955      379.75164      18558.121      19371.101      161.36786    
    478000   314.9919       380.00999      18536.275      19366.971      175.19143    
    479000   291.91777      370.42365      18554.358      19342.454     -130.79768    
    480000   292.42662      373.95777      18526.629      19318.988     -52.90616     
    481000   290.9289       373.97364      18522.142      19312.374     -39.577904    
    482000   289.27266      375.1329       18522.587      19311.608     -8.7721805    
    483000   299.84654      377.92722      18509.327      19316.271      94.275397    
    484000   300.85397      364.97328      18530.462      19325.894     -274.09494    
    485000   294.32487      380.3739       18536.925      19338.415      160.00788    
    486000   307.59203      381.41395      18528.241      19349.754     -11.125385    
    487000   311.01177      377.13976      18532.133      19354.265     -89.959118    
    488000   302.92929      373.82541      18550.69       19357.943     -95.754424    
    489000   300.33566      365.57037      18562.675      19357.962     -252.02033    
    490000   306.66319      383.12927      18519.681      19341.58       174.64202    
    491000   292.38862      376.91301      18520.607      19315.866     -42.42979     
    492000   286.55799      364.64301      18530.6        19305.247     -413.31869    
    493000   283.64707      376.24288      18521.898      19303.98      -41.260837    
    494000   282.8126       378.3689       18528.619      19311.633      187.44531    
    495000   299.15502      380.98199      18518.406      19327.416      124.31511    
    496000   294.77134      371.05269      18549.145      19341.953     -171.59731    
    497000   312.13042      372.09598      18529.188      19347.877     -28.564243    
    498000   300.98501      374.71155      18544.296      19349.654      0.36967554   
    499000   311.64587      378.26225      18530.504      19354.666      88.242221    
    500000   309.37223      377.47442      18536.12       19356.24       85.685866    
Loop time of 16.0237 on 48 procs for 50000 steps with 481 atoms

Performance: 13.480 ns/day, 1.780 hours/ns, 3120.386 timesteps/s, 1.501 Matom-step/s
100.0% CPU use with 48 MPI tasks x 1 OpenMP threads

MPI task timing breakdown:
Section |  min time  |  avg time  |  max time  |%varavg| %total
---------------------------------------------------------------
Pair    | 0.017421   | 0.72573    | 4.3696     | 136.3 |  4.53
Bond    | 0.0050714  | 0.91965    | 4.875      | 149.5 |  5.74
Neigh   | 0.021116   | 0.023128   | 0.024769   |   0.6 |  0.14
Comm    | 5.8538     | 11.551     | 14.488     |  90.9 | 72.09
Output  | 0.0080603  | 0.013042   | 0.018145   |   2.8 |  0.08
Modify  | 0.63799    | 2.202      | 8.8146     | 185.5 | 13.74
Other   |            | 0.5894     |            |       |  3.68

Nlocal:        10.0208 ave          46 max           0 min
Histogram: 25 10 3 2 0 1 0 2 1 4
Nghost:        1818.35 ave        2347 max        1178 min
Histogram: 8 0 0 0 24 0 0 0 0 16
Neighs:              0 ave           0 max           0 min
Histogram: 48 0 0 0 0 0 0 0 0 0

Total # of neighbors = 0
Ave neighs/atom = 0
Ave special neighs/atom = 15.567568
Neighbor list builds = 61
Dangerous builds = 0
unfix           myat1
next            cpt
jump            SELF loop
variable        zdes equal  -15+0.30*(${cpt}-1)
variable        zdes equal  -15+0.30*(9-1)
variable        zave equal xcm(H2,z)
fix             mytth2 H2 spring tether ${k1} 2.5 2.5 ${zdes} 0
fix             mytth2 H2 spring tether 0.5 2.5 2.5 ${zdes} 0
fix             mytth2 H2 spring tether 0.5 2.5 2.5 -12.6 0
run             10000
Generated 0 of 1 mixed pair_coeff terms from geometric mixing rule
Per MPI rank memory allocation (min/avg/max) = 13.32 | 13.74 | 14.98 Mbytes
   Step          Temp          E_pair         E_mol          TotEng         Press     
    500000   309.37223      377.47442      18536.12       19356.24       85.685866    
    501000   295.14245      369.60454      18557.649      19349.54      -190.66685    
    502000   299.58799      375.85712      18532.11       19336.614      36.688617    
    503000   297.16056      376.3679       18515.097      19316.639      56.768452    
    504000   277.89441      373.70291      18521.264      19292.575     -8.5754607    
    505000   275.28587      375.51796      18509.899      19279.293      8.196262     
    506000   288.26945      366.12168      18502.629      19281.204     -238.12258    
    507000   287.87869      374.6481       18501.346      19287.888      103.90296    
    508000   278.89014      378.92603      18513.753      19291.712      118.06304    
    509000   283.44851      374.18128      18523.483      19303.219     -84.517905    
    510000   295.96527      369.12283      18528.55       19321.137     -147.32651    
Loop time of 3.23689 on 48 procs for 10000 steps with 481 atoms

Performance: 13.346 ns/day, 1.798 hours/ns, 3089.383 timesteps/s, 1.486 Matom-step/s
100.0% CPU use with 48 MPI tasks x 1 OpenMP threads

MPI task timing breakdown:
Section |  min time  |  avg time  |  max time  |%varavg| %total
---------------------------------------------------------------
Pair    | 0.0034211  | 0.14511    | 0.89224    |  61.5 |  4.48
Bond    | 0.0010016  | 0.18398    | 0.97746    |  67.0 |  5.68
Neigh   | 0.0048528  | 0.0053121  | 0.005698   |   0.3 |  0.16
Comm    | 1.0725     | 2.3371     | 2.9292     |  41.1 | 72.20
Output  | 0.0016097  | 0.0026417  | 0.0037656  |   1.3 |  0.08
Modify  | 0.12885    | 0.44526    | 1.7978     |  84.4 | 13.76
Other   |            | 0.1175     |            |       |  3.63

Nlocal:        10.0208 ave          54 max           0 min
Histogram: 28 5 7 1 0 1 1 3 1 1
Nghost:        1818.35 ave        2347 max        1183 min
Histogram: 8 0 0 0 24 0 0 0 0 16
Neighs:              0 ave           0 max           0 min
Histogram: 48 0 0 0 0 0 0 0 0 0

Total # of neighbors = 0
Ave neighs/atom = 0
Ave special neighs/atom = 15.567568
Neighbor list builds = 14
Dangerous builds = 0
fix             myat1 all ave/time 1000 10 10000 v_zave v_zdes file simulation_data/abpot/${cpt}.dat
fix             myat1 all ave/time 1000 10 10000 v_zave v_zdes file simulation_data/abpot/9.dat
run             50000
Generated 0 of 1 mixed pair_coeff terms from geometric mixing rule
Per MPI rank memory allocation (min/avg/max) = 13.32 | 13.74 | 14.98 Mbytes
   Step          Temp          E_pair         E_mol          TotEng         Press     
    510000   295.96527      369.12283      18528.55       19321.137     -147.32651    
    511000   310.17385      372.20152      18520.19       19336.184     -103.18562    
    512000   297.348        386.06922      18534.566      19346.078      220.1024     
    513000   310.00353      377.06851      18533.089      19353.707      124.45503    
    514000   308.63827      371.52521      18540.553      19353.674     -191.5553     
    515000   322.41349      375.37547      18512.2        19348.882      76.901691    
    516000   302.62949      372.53383      18529.244      19334.776     -55.167612    
    517000   286.22805      377.20776      18525.052      19311.791      4.1486163    
    518000   284.94228      375.23392      18512.525      19295.451     -32.246687    
    519000   290.28099      369.76529      18510.49       19295.586     -194.75898    
    520000   286.2761       381.09588      18513.131      19303.827      203.56938    
    521000   296.31807      368.87538      18519.158      19312.002     -114.19367    
    522000   289.59607      368.50065      18535.213      19318.064     -193.86551    
    523000   292.32259      374.0641       18534.194      19326.51      -39.336772    
    524000   301.55526      370.8174       18529.997      19332.277     -100.78152    
    525000   306.01888      378.40838      18521.043      19337.299      1.1090966    
    526000   305.89917      371.76272      18528.759      19338.199     -96.994207    
    527000   307.86999      365.85329      18529.618      19335.969     -291.39537    
    528000   318.89231      382.01871      18496.098      19334.384      166.6233     
    529000   294.18641      374.40816      18531.287      19326.614     -123.89165    
    530000   292.74746      379.78108      18520.369      19319.01       128.20916    
    531000   294.75347      368.65858      18516.768      19307.157     -174.39919    
    532000   285.5396       373.12243      18509.948      19291.617     -43.849222    
    533000   284.62138      377.41737      18501.401      19286.051      29.011295    
    534000   299.96454      368.45818      18497.127      19294.771     -130.94049    
    535000   284.99614      372.79413      18530.698      19311.262     -43.531921    
    536000   292.50047      374.21294      18534.219      19326.938     -59.991973    
    537000   302.05597      372.27995      18533.198      19337.656      22.04404     
    538000   310.79288      378.60435      18519.073      19342.357      20.54449     
    539000   320.69173      368.61884      18518.056      19345.517     -81.83652     
    540000   313.04036      365.90397      18527.641      19341.44      -238.98131    
    541000   312.46352      377.35815      18514.958      19339.385      30.29971     
    542000   289.23974      378.97575      18536.602      19329.419      51.529324    
    543000   291.56766      369.34065      18524.473      19310.985     -169.47737    
    544000   292.51931      375.01094      18502.05       19295.594      35.599515    
    545000   292.14589      366.89318      18506.768      19291.66      -163.16741    
    546000   277.24858      375.57531      18523.725      19295.984     -31.39588     
    547000   280.76845      372.0715       18537.551      19311.343     -47.800014    
    548000   299.70071      375.36717      18526.817      19330.993     -42.242024    
    549000   305.42989      372.00858      18531.053      19340.067      19.185033    
    550000   296.78646      370.21613      18547.175      19342.03      -217.19199    
    551000   301.4497       376.27723      18534.28       19341.868      127.08805    
    552000   296.83944      371.72972      18544.776      19341.221     -102.07288    
    553000   300.50846      379.6399       18527.921      19337.525      40.863471    
    554000   288.14301      376.92377      18544.966      19334.162      23.428608    
    555000   285.55496      373.26379      18546.43       19328.263     -67.949617    
    556000   297.22138      373.92934      18520.525      19319.715      130.30231    
    557000   292.48045      370.9895       18521.676      19311.144     -57.167725    
    558000   277.57897      371.50716      18535.215      19303.879     -178.80511    
    559000   286.88605      379.32711      18510.715      19300.515      102.67194    
    560000   294.52139      370.34818      18514.193      19305.939     -36.757259    
Loop time of 15.6671 on 48 procs for 50000 steps with 481 atoms

Performance: 13.787 ns/day, 1.741 hours/ns, 3191.393 timesteps/s, 1.535 Matom-step/s
100.0% CPU use with 48 MPI tasks x 1 OpenMP threads

MPI task timing breakdown:
Section |  min time  |  avg time  |  max time  |%varavg| %total
---------------------------------------------------------------
Pair    | 0.017213   | 0.72549    | 4.2995     | 135.5 |  4.63
Bond    | 0.0050112  | 0.91968    | 5.0039     | 149.7 |  5.87
Neigh   | 0.023141   | 0.025295   | 0.02712    |   0.7 |  0.16
Comm    | 5.8343     | 11.29      | 14.144     |  89.6 | 72.06
Output  | 0.0081486  | 0.013171   | 0.018354   |   2.8 |  0.08
Modify  | 0.6454     | 2.1023     | 8.4067     | 180.1 | 13.42
Other   |            | 0.5909     |            |       |  3.77

Nlocal:        10.0208 ave          48 max           0 min
Histogram: 21 14 5 0 0 0 2 2 2 2
Nghost:        1818.35 ave        2347 max        1175 min
Histogram: 8 0 0 0 24 0 0 0 0 16
Neighs:              0 ave           0 max           0 min
Histogram: 48 0 0 0 0 0 0 0 0 0

Total # of neighbors = 0
Ave neighs/atom = 0
Ave special neighs/atom = 15.567568
Neighbor list builds = 66
Dangerous builds = 0
unfix           myat1
next            cpt
jump            SELF loop
variable        zdes equal  -15+0.30*(${cpt}-1)
variable        zdes equal  -15+0.30*(10-1)
variable        zave equal xcm(H2,z)
fix             mytth2 H2 spring tether ${k1} 2.5 2.5 ${zdes} 0
fix             mytth2 H2 spring tether 0.5 2.5 2.5 ${zdes} 0
fix             mytth2 H2 spring tether 0.5 2.5 2.5 -12.3 0
run             10000
Generated 0 of 1 mixed pair_coeff terms from geometric mixing rule
Per MPI rank memory allocation (min/avg/max) = 13.32 | 13.76 | 14.98 Mbytes
   Step          Temp          E_pair         E_mol          TotEng         Press     
    560000   294.52139      370.34818      18514.193      19305.939     -36.757259    
    561000   294.87884      369.82991      18527.785      19319.524     -22.214033    
    562000   321.12428      374.44238      18505.48       19339.384      50.686367    
    563000   298.65532      373.68389      18550.418      19351.415     -57.682845    
    564000   307.77141      379.90631      18534.748      19355.01       84.195918    
    565000   302.55933      369.18684      18551.626      19353.711     -129.17458    
    566000   312.67086      365.0914       18535.592      19348.05      -342.53885    
    567000   303.18431      373.50878      18523.844      19331.145     -67.625885    
    568000   271.74331      374.93756      18546.257      19310.001     -63.941643    
    569000   291.84946      377.42368      18509.291      19304.289      45.972112    
    570000   304.39258      368.53279      18502.74       19306.794     -67.529202    
Loop time of 3.13789 on 48 procs for 10000 steps with 481 atoms

Performance: 13.767 ns/day, 1.743 hours/ns, 3186.855 timesteps/s, 1.533 Matom-step/s
100.0% CPU use with 48 MPI tasks x 1 OpenMP threads

MPI task timing breakdown:
Section |  min time  |  avg time  |  max time  |%varavg| %total
---------------------------------------------------------------
Pair    | 0.003436   | 0.1452     | 0.8776     |  60.9 |  4.63
Bond    | 0.0010084  | 0.18379    | 0.97301    |  66.7 |  5.86
Neigh   | 0.0048609  | 0.0053587  | 0.0057704  |   0.3 |  0.17
Comm    | 1.1038     | 2.2584     | 2.8299     |  39.9 | 71.97
Output  | 0.0016182  | 0.0026176  | 0.0037196  |   1.3 |  0.08
Modify  | 0.12677    | 0.42478    | 1.7008     |  80.3 | 13.54
Other   |            | 0.1178     |            |       |  3.75

Nlocal:        10.0208 ave          47 max           0 min
Histogram: 24 7 8 1 0 0 1 3 1 3
Nghost:        1818.35 ave        2347 max        1176 min
Histogram: 8 0 0 0 24 0 0 0 0 16
Neighs:              0 ave           0 max           0 min
Histogram: 48 0 0 0 0 0 0 0 0 0

Total # of neighbors = 0
Ave neighs/atom = 0
Ave special neighs/atom = 15.567568
Neighbor list builds = 15
Dangerous builds = 0
fix             myat1 all ave/time 1000 10 10000 v_zave v_zdes file simulation_data/abpot/${cpt}.dat
fix             myat1 all ave/time 1000 10 10000 v_zave v_zdes file simulation_data/abpot/10.dat
run             50000
Generated 0 of 1 mixed pair_coeff terms from geometric mixing rule
Per MPI rank memory allocation (min/avg/max) = 13.32 | 13.76 | 14.98 Mbytes
   Step          Temp          E_pair         E_mol          TotEng         Press     
    570000   304.39258      368.53279      18502.74       19306.794     -67.529202    
    571000   287.7692       374.02445      18525.328      19311.089     -41.560316    
    572000   280.54731      366.44151      18545.717      19313.563     -270.25707    
    573000   302.83802      375.29456      18515.27       19323.861      53.819941    
    574000   294.40736      386.13028      18525.106      19332.471      342.36416    
    575000   315.69072      367.53412      18520.273      19339.493     -213.82496    
    576000   310.97856      363.66008      18538.251      19346.855     -265.33952    
    577000   299.23963      372.17106      18558.614      19358.933      43.88823     
    578000   321.88968      382.65544      18531.293      19374.505      59.447119    
    579000   322.25681      374.12096      18554.703      19389.906      3.1064348    
    580000   317.47418      373.5248       18568.789      19396.552      35.580931    
    581000   320.09798      368.9907       18554.853      19381.836     -117.86302    
    582000   296.23202      368.20775      18558.891      19350.944     -179.62292    
    583000   299.84882      381.52047      18528.684      19339.225      208.47305    
    584000   310.57704      375.46854      18516.252      19336.091      14.585893    
    585000   295.84079      365.00381      18536.36       19324.65      -260.62682    
    586000   298.69771      366.23935      18521.942      19315.554     -152.31005    
    587000   304.27501      381.0171       18493.877      19310.248      92.762016    
    588000   311.63411      379.30545      18484.261      19309.449      155.19924    
    589000   291.6113       370.97975      18526.729      19314.943     -121.86402    
    590000   304.45633      362.28044      18530.012      19327.905     -238.88498    
    591000   309.18881      374.34504      18529.893      19346.622     -23.073467    
    592000   310.93372      381.3743       18534.442      19360.697      132.5787     
    593000   316.12183      375.06609      18536.77       19364.139      56.823284    
    594000   313.94306      360.37101      18548.197      19357.754     -357.71852    
    595000   306.69743      372.99219      18534.744      19346.555     -130.05251    
    596000   320.90365      379.95886      18494.969      19334.073      154.67963    
    597000   284.44995      374.61933      18540.676      19322.283     -37.818524    
    598000   290.21079      376.29759      18530.58       19322.108     -28.038138    
    599000   303.98541      362.24033      18523.772      19320.951     -266.25755    
    600000   299.2016       374.77508      18514.847      19317.716      25.389877    
    601000   301.31899      377.03317      18511.912      19320.069      53.575897    
    602000   296.16146      371.89282      18529.977      19325.614     -164.6083     
    603000   300.02503      372.74994      18529.779      19331.801     -23.333962    
    604000   308.33689      369.54905      18536.596      19347.31      -129.76405    
    605000   324.98526      374.50537      18523.494      19362.985     -37.844962    
    606000   319.52356      386.69807      18529.339      19373.208      376.74772    
    607000   307.36725      371.25946      18559.47       19370.507     -162.28051    
    608000   298.41876      366.68129      18562.037      19355.692     -283.99883    
    609000   310.64618      373.94721      18516.517      19334.933      11.360588    
    610000   287.15182      377.25873      18528.543      19316.655      247.47084    
    611000   300.52503      384.3195       18493.9        19308.208      223.67215    
    612000   307.05517      368.863        18498.569      19306.763     -145.50005    
    613000   292.12636      369.29596      18523.285      19310.552     -162.15795    
    614000   299.35832      376.41154      18514.037      19318.767      120.43171    
    615000   303.4223       377.67262      18523.238      19335.044      136.82905    
    616000   320.61846      371.82975      18521.392      19351.96      -28.140466    
    617000   308.57186      364.50101      18553.317      19359.32      -310.84698    
    618000   319.60943      370.24745      18536.166      19363.707     -87.973183    
    619000   299.31928      380.17096      18553.518      19361.951      172.43426    
    620000   288.77905      373.23087      18566.925      19353.338     -80.992076    
Loop time of 15.708 on 48 procs for 50000 steps with 481 atoms

Performance: 13.751 ns/day, 1.745 hours/ns, 3183.091 timesteps/s, 1.531 Matom-step/s
100.0% CPU use with 48 MPI tasks x 1 OpenMP threads

MPI task timing breakdown:
Section |  min time  |  avg time  |  max time  |%varavg| %total
---------------------------------------------------------------
Pair    | 0.017168   | 0.72526    | 4.3663     | 135.7 |  4.62
Bond    | 0.0051274  | 0.9193     | 4.7715     | 149.0 |  5.85
Neigh   | 0.023744   | 0.025951   | 0.027742   |   0.7 |  0.17
Comm    | 5.9892     | 11.325     | 14.161     |  88.8 | 72.09
Output  | 0.0081128  | 0.013173   | 0.018461   |   2.8 |  0.08
Modify  | 0.64583    | 2.1092     | 8.3727     | 178.5 | 13.43
Other   |            | 0.5905     |            |       |  3.76

Nlocal:        10.0208 ave          52 max           0 min
Histogram: 27 7 5 1 0 2 2 2 0 2
Nghost:        1818.35 ave        2346 max        1171 min
Histogram: 8 0 0 0 24 0 0 0 0 16
Neighs:              0 ave           0 max           0 min
Histogram: 48 0 0 0 0 0 0 0 0 0

Total # of neighbors = 0
Ave neighs/atom = 0
Ave special neighs/atom = 15.567568
Neighbor list builds = 69
Dangerous builds = 0
unfix           myat1
next            cpt
jump            SELF loop
variable        zdes equal  -15+0.30*(${cpt}-1)
variable        zdes equal  -15+0.30*(11-1)
variable        zave equal xcm(H2,z)
fix             mytth2 H2 spring tether ${k1} 2.5 2.5 ${zdes} 0
fix             mytth2 H2 spring tether 0.5 2.5 2.5 ${zdes} 0
fix             mytth2 H2 spring tether 0.5 2.5 2.5 -12 0
run             10000
Generated 0 of 1 mixed pair_coeff terms from geometric mixing rule
Per MPI rank memory allocation (min/avg/max) = 13.32 | 13.76 | 14.98 Mbytes
   Step          Temp          E_pair         E_mol          TotEng         Press     
    620000   288.77905      373.23087      18566.925      19353.338     -80.992076    
    621000   305.52304      363.78682      18549.342      19350.268     -347.09853    
    622000   289.86674      374.18529      18551.116      19340.039     -112.68726    
    623000   310.80537      378.48856      18510.376      19333.561      156.58441    
    624000   293.58812      380.72778      18529.654      19330.444      268.35409    
    625000   305.15002      366.09291      18525.284      19327.982     -210.69361    
    626000   291.47664      370.20673      18533.86       19321.108     -59.764472    
    627000   299.55551      379.0158       18504.787      19312.404      25.162552    
    628000   292.95856      376.36675      18503.321      19298.85      -0.37722054   
    629000   275.25305      374.32418      18523.746      19291.899      155.97274    
    630000   298.72304      366.97988      18503.679      19298.069     -168.67732    
Loop time of 3.21042 on 48 procs for 10000 steps with 481 atoms

Performance: 13.456 ns/day, 1.784 hours/ns, 3114.853 timesteps/s, 1.498 Matom-step/s
100.0% CPU use with 48 MPI tasks x 1 OpenMP threads

MPI task timing breakdown:
Section |  min time  |  avg time  |  max time  |%varavg| %total
---------------------------------------------------------------
Pair    | 0.0034019  | 0.14516    | 0.88439    |  60.7 |  4.52
Bond    | 0.0010033  | 0.18377    | 0.95851    |  66.8 |  5.72
Neigh   | 0.0032035  | 0.0034844  | 0.0037198  |   0.2 |  0.11
Comm    | 1.2061     | 2.3214     | 2.9101     |  40.7 | 72.31
Output  | 0.0016497  | 0.0026556  | 0.0036777  |   1.3 |  0.08
Modify  | 0.12641    | 0.43552    | 1.7588     |  83.4 | 13.57
Other   |            | 0.1185     |            |       |  3.69

Nlocal:        10.0208 ave          51 max           0 min
Histogram: 25 10 4 1 0 1 2 1 3 1
Nghost:        1818.35 ave        2347 max        1172 min
Histogram: 8 0 0 0 24 0 0 0 0 16
Neighs:              0 ave           0 max           0 min
Histogram: 48 0 0 0 0 0 0 0 0 0

Total # of neighbors = 0
Ave neighs/atom = 0
Ave special neighs/atom = 15.567568
Neighbor list builds = 9
Dangerous builds = 0
fix             myat1 all ave/time 1000 10 10000 v_zave v_zdes file simulation_data/abpot/${cpt}.dat
fix             myat1 all ave/time 1000 10 10000 v_zave v_zdes file simulation_data/abpot/11.dat
run             50000
Generated 0 of 1 mixed pair_coeff terms from geometric mixing rule
Per MPI rank memory allocation (min/avg/max) = 13.32 | 13.76 | 14.98 Mbytes
   Step          Temp          E_pair         E_mol          TotEng         Press     
    630000   298.72304      366.97988      18503.679      19298.069     -168.67732    
    631000   296.89608      372.98245      18513.287      19311.066      87.770117    
    632000   288.42221      379.65196      18533.836      19326.159      87.50729     
    633000   314.43704      371.87949      18520.908      19342.68      -143.65988    
    634000   295.36237      379.57163      18548.028      19350.2        82.379272    
    635000   305.22266      373.27939      18545.674      19355.663     -65.468052    
    636000   316.98637      369.76688      18529.266      19352.573     -178.00123    
    637000   302.57352      373.3824       18534.101      19340.402     -88.91287     
    638000   298.95181      377.06327      18522.817      19327.617      8.2097629    
    639000   298.45243      373.21466      18516.47       19316.707      73.234228    
    640000   283.11505      369.73562      18535.756      19310.569     -178.71987    
    641000   291.5522       370.54267      18524.031      19311.723     -85.335025    
    642000   295.01794      371.44356      18523.648      19317.2       -89.158154    
    643000   303.81046      379.82059      18515.102      19329.611      202.38145    
    644000   320.75995      374.78644      18532.881      19366.608      74.369853    
    645000   327.24421      369.10616      18540.906      19378.229     -135.267      
    646000   315.80765      368.7278       18553.555      19374.137     -63.201127    
    647000   307.08686      374.55756      18540.277      19354.211     -96.011936    
    648000   309.85869      382.60275      18509.846      19335.791      250.11955    
    649000   310.50165      376.10279      18502.816      19323.181      108.70282    
    650000   303.65675      358.13975      18521.376      19313.985     -386.88198    
    651000   291.41499      371.04461      18518.841      19306.839     -17.542879    
    652000   290.90832      375.5979       18511.278      19303.104      73.539471    
    653000   292.38752      382.63517      18503.44       19304.42      -25.721996    
    654000   292.77988      370.03397      18526.29       19315.23       9.7449186    
    655000   285.94879      366.5849       18559.701      19335.418     -246.65337    
    656000   311.17247      373.22717      18540.351      19358.8       -152.22497    
    657000   315.64728      377.50937      18534.469      19363.603      145.73215    
    658000   295.641        375.79059      18555.069      19353.86       35.168572    
    659000   314.05383      361.80181      18532.784      19343.931     -251.63166    
    660000   299.99709      366.89522      18536.895      19333.023     -142.48962    
    661000   324.45079      378.88004      18480.62       19323.721      199.66504    
    662000   296.22508      377.23616      18518.002      19319.074      75.784164    
    663000   294.90721      367.40163      18525.021      19314.373     -94.331688    
    664000   299.23008      369.20187      18516.032      19313.369     -91.278601    
    665000   292.49817      372.20244      18523.135      19313.84      -66.221649    
    666000   296.90523      379.74775      18505.425      19309.981      137.66898    
    667000   287.03627      376.23876      18523.64       19310.567      38.510861    
    668000   292.28191      367.46054      18529.435      19315.089     -237.79378    
    669000   294.88231      372.85308      18526.538      19321.305     -184.59294    
    670000   317.66033      380.66144      18487.22       19322.386      77.464494    
    671000   295.52591      375.53481      18522.142      19320.512      143.0252     
    672000   298.64352      369.47558      18524.217      19320.988     -113.83308    
    673000   296.7963       372.77284      18527.16       19324.586     -104.47235    
    674000   292.8895       370.72417      18543.683      19333.47      -35.411172    
    675000   292.78969      380.75771      18542.131      19341.808     -30.574285    
    676000   307.86301      372.08963      18535.892      19348.469      10.642059    
    677000   324.10981      369.95241      18519.175      19352.86      -23.834603    
    678000   311.22452      374.71134      18523.243      19343.251     -24.318184    
    679000   310.80952      375.42527      18507.701      19327.829     -33.217993    
    680000   293.48903      373.6517       18519.43       19313.003      28.616813    
Loop time of 16.5145 on 48 procs for 50000 steps with 481 atoms

Performance: 13.079 ns/day, 1.835 hours/ns, 3027.638 timesteps/s, 1.456 Matom-step/s
100.0% CPU use with 48 MPI tasks x 1 OpenMP threads

MPI task timing breakdown:
Section |  min time  |  avg time  |  max time  |%varavg| %total
---------------------------------------------------------------
Pair    | 0.017422   | 0.72507    | 4.3769     | 136.4 |  4.39
Bond    | 0.0050336  | 0.91955    | 4.7407     | 149.2 |  5.57
Neigh   | 0.02773    | 0.030195   | 0.032266   |   0.7 |  0.18
Comm    | 6.578      | 11.923     | 14.962     |  91.7 | 72.20
Output  | 0.0082816  | 0.013351   | 0.018515   |   2.8 |  0.08
Modify  | 0.62804    | 2.3115     | 9.2654     | 190.5 | 14.00
Other   |            | 0.5918     |            |       |  3.58

Nlocal:        10.0208 ave          52 max           0 min
Histogram: 27 5 8 0 1 1 1 2 1 2
Nghost:        1818.88 ave        2347 max        1175 min
Histogram: 8 0 0 0 24 0 0 0 0 16
Neighs:              0 ave           0 max           0 min
Histogram: 48 0 0 0 0 0 0 0 0 0

Total # of neighbors = 0
Ave neighs/atom = 0
Ave special neighs/atom = 15.567568
Neighbor list builds = 76
Dangerous builds = 0
unfix           myat1
next            cpt
jump            SELF loop
variable        zdes equal  -15+0.30*(${cpt}-1)
variable        zdes equal  -15+0.30*(12-1)
variable        zave equal xcm(H2,z)
fix             mytth2 H2 spring tether ${k1} 2.5 2.5 ${zdes} 0
fix             mytth2 H2 spring tether 0.5 2.5 2.5 ${zdes} 0
fix             mytth2 H2 spring tether 0.5 2.5 2.5 -11.7 0
run             10000
Generated 0 of 1 mixed pair_coeff terms from geometric mixing rule
Per MPI rank memory allocation (min/avg/max) = 13.32 | 13.76 | 14.98 Mbytes
   Step          Temp          E_pair         E_mol          TotEng         Press     
    680000   293.48903      373.6517       18519.43       19313.003      28.616813    
    681000   281.92388      375.43199      18521.1        19299.906      117.05877    
    682000   287.11936      370.99067      18516.274      19298.072     -220.50985    
    683000   292.1822       374.37849      18512.226      19304.656      66.305575    
    684000   293.29166      378.61089      18511.32       19309.569      205.44114    
    685000   291.25229      369.09592      18535.594      19321.411     -202.31835    
    686000   305.32457      363.98552      18533.953      19334.793     -268.56107    
    687000   301.55797      379.27791      18539.324      19350.068      163.17022    
    688000   323.61899      374.07886      18528.917      19366.026     -22.294312    
    689000   306.71383      371.50593      18556.791      19367.14      -108.07305    
    690000   286.34126      370.56439      18564.409      19344.667     -127.50621    
Loop time of 3.25384 on 48 procs for 10000 steps with 481 atoms

Performance: 13.277 ns/day, 1.808 hours/ns, 3073.292 timesteps/s, 1.478 Matom-step/s
100.0% CPU use with 48 MPI tasks x 1 OpenMP threads

MPI task timing breakdown:
Section |  min time  |  avg time  |  max time  |%varavg| %total
---------------------------------------------------------------
Pair    | 0.003393   | 0.14536    | 0.90515    |  61.4 |  4.47
Bond    | 0.0010017  | 0.18396    | 0.94699    |  67.0 |  5.65
Neigh   | 0.0060145  | 0.0066009  | 0.0071037  |   0.4 |  0.20
Comm    | 1.2295     | 2.3454     | 2.9396     |  40.7 | 72.08
Output  | 0.002007   | 0.0029793  | 0.0039903  |   1.1 |  0.09
Modify  | 0.13228    | 0.45107    | 1.808      |  83.3 | 13.86
Other   |            | 0.1184     |            |       |  3.64

Nlocal:        10.0208 ave          47 max           0 min
Histogram: 25 7 5 3 1 1 0 2 0 4
Nghost:        1818.35 ave        2348 max        1176 min
Histogram: 8 0 0 0 24 0 0 0 0 16
Neighs:              0 ave           0 max           0 min
Histogram: 48 0 0 0 0 0 0 0 0 0

Total # of neighbors = 0
Ave neighs/atom = 0
Ave special neighs/atom = 15.567568
Neighbor list builds = 17
Dangerous builds = 0
fix             myat1 all ave/time 1000 10 10000 v_zave v_zdes file simulation_data/abpot/${cpt}.dat
fix             myat1 all ave/time 1000 10 10000 v_zave v_zdes file simulation_data/abpot/12.dat
run             50000
Generated 0 of 1 mixed pair_coeff terms from geometric mixing rule
Per MPI rank memory allocation (min/avg/max) = 13.32 | 13.76 | 14.98 Mbytes
   Step          Temp          E_pair         E_mol          TotEng         Press     
    690000   286.34126      370.56439      18564.409      19344.667     -127.50621    
    691000   304.30998      375.96745      18497.149      19308.519      11.291973    
    692000   287.36338      376.43169      18505.174      19292.762      95.839249    
    693000   285.51864      376.67196      18502.613      19287.802      51.769651    
    694000   288.63382      365.52826      18517.36       19295.863     -223.05275    
    695000   300.72481      373.42034      18512.235      19315.929     -69.836795    
    696000   305.9379       378.37485      18513.371      19329.478      89.712489    
    697000   307.2803       367.3079       18531.375      19338.336     -154.45229    
    698000   294.9865       372.98141      18552.659      19347.704     -227.59224    
    699000   307.85438      379.14682      18535.911      19355.532      172.23976    
    700000   320.05467      374.29243      18519.014      19351.237      48.952005    
    701000   313.24564      367.85108      18516.969      19333.009     -226.56527    
    702000   287.59604      374.50298      18528.319      19314.311     -86.497911    
    703000   293.2951       376.32677      18509.047      19305.017      77.808544    
    704000   301.05357      378.97475      18486.339      19296.057      220.61645    
    705000   282.20194      373.26388      18521.118      19298.153     -119.75872    
    706000   293.57793      375.13983      18514.637      19309.825      107.39326    
    707000   284.38712      371.13675      18540.119      19318.154     -170.92478    
    708000   305.79556      373.76996      18509.729      19321.028      19.587509    
    709000   295.35985      371.14808      18527.578      19321.324     -10.168368    
    710000   310.14866      376.08111      18503.905      19323.743      61.397102    
    711000   315.56481      375.84585      18499.652      19327.004     -87.905153    
    712000   303.43028      366.06378      18524.354      19324.562     -176.01369    
    713000   296.99297      374.70045      18521.853      19321.488     -17.581158    
    714000   304.13398      379.69598      18507.473      19322.32       70.628127    
    715000   297.84087      369.80327      18521.202      19317.153     -193.57223    
    716000   287.37836      367.24239      18525.427      19303.847     -223.69637    
    717000   294.6448       375.60555      18495.116      19292.296      108.29125    
    718000   291.13658      377.86452      18493.132      19287.551      228.4614     
    719000   285.59899      365.60399      18519.142      19293.378     -117.19197    
    720000   289.86569      368.05892      18525.207      19308.003     -180.57002    
    721000   289.69313      369.30458      18541.206      19325         -228.13317    
    722000   313.35035      385.35358      18504.535      19338.227      375.60366    
    723000   302.76223      378.07166      18530.529      19341.79       79.457649    
    724000   318.77006      360.54473      18526.755      19343.393     -247.04323    
    725000   305.73947      364.97414      18538.48       19340.903     -221.29523    
    726000   293.75755      377.87728      18534.212      19332.395      78.652845    
    727000   302.8206       385.70366      18503.529      19322.505      317.18212    
    728000   297.20133      366.0528       18528.233      19319.518     -281.37026    
    729000   290.52703      367.82838      18534.209      19317.72      -136.92234    
    730000   307.27455      364.77935      18513.132      19317.556     -163.36756    
    731000   290.66663      379.31481      18521.379      19316.577      70.686614    
    732000   284.23537      380.60768      18529.172      19316.461      132.93423    
    733000   301.48972      365.99613      18526.916      19324.281     -281.7964     
    734000   308.03798      364.6874       18524.424      19329.849     -182.33725    
    735000   298.5186       375.28452      18531.799      19334.201      58.396385    
    736000   311.81584      377.44837      18514.758      19338.349      83.820372    
    737000   315.27263      373.4212       18526.591      19351.101     -21.328142    
    738000   313.04154      366.79166      18543.845      19358.533     -314.73658    
    739000   316.38901      370.1855       18531.433      19354.304     -139.54653    
    740000   306.24258      381.59854      18525.56       19345.327      62.39322     
Loop time of 16.0793 on 48 procs for 50000 steps with 481 atoms

Performance: 13.433 ns/day, 1.787 hours/ns, 3109.591 timesteps/s, 1.496 Matom-step/s
100.0% CPU use with 48 MPI tasks x 1 OpenMP threads

MPI task timing breakdown:
Section |  min time  |  avg time  |  max time  |%varavg| %total
---------------------------------------------------------------
Pair    | 0.01738    | 0.72494    | 4.1335     | 135.0 |  4.51
Bond    | 0.0050256  | 0.91971    | 4.5705     | 148.8 |  5.72
Neigh   | 0.028394   | 0.031086   | 0.033276   |   0.8 |  0.19
Comm    | 6.4811     | 11.627     | 14.549     |  89.8 | 72.31
Output  | 0.0082415  | 0.01319    | 0.018315   |   2.7 |  0.08
Modify  | 0.62702    | 2.171      | 8.7058     | 184.3 | 13.50
Other   |            | 0.5919     |            |       |  3.68

Nlocal:        10.0208 ave          52 max           0 min
Histogram: 24 12 3 1 0 3 0 2 1 2
Nghost:        1818.35 ave        2347 max        1171 min
Histogram: 8 0 0 0 24 0 0 0 0 16
Neighs:              0 ave           0 max           0 min
Histogram: 48 0 0 0 0 0 0 0 0 0

Total # of neighbors = 0
Ave neighs/atom = 0
Ave special neighs/atom = 15.567568
Neighbor list builds = 81
Dangerous builds = 0
unfix           myat1
next            cpt
jump            SELF loop
variable        zdes equal  -15+0.30*(${cpt}-1)
variable        zdes equal  -15+0.30*(13-1)
variable        zave equal xcm(H2,z)
fix             mytth2 H2 spring tether ${k1} 2.5 2.5 ${zdes} 0
fix             mytth2 H2 spring tether 0.5 2.5 2.5 ${zdes} 0
fix             mytth2 H2 spring tether 0.5 2.5 2.5 -11.4 0
run             10000
Generated 0 of 1 mixed pair_coeff terms from geometric mixing rule
Per MPI rank memory allocation (min/avg/max) = 13.32 | 13.77 | 14.98 Mbytes
   Step          Temp          E_pair         E_mol          TotEng         Press     
    740000   306.24258      381.59854      18525.56       19345.327      62.39322     
    741000   293.40236      374.0604       18535.1        19328.957     -1.4583902    
    742000   295.381        373.05952      18516.7        19312.387     -111.27552    
    743000   296.54116      368.08078      18512.644      19305.013     -98.573325    
    744000   293.59136      379.52612      18505.897      19305.491      160.21192    
    745000   291.98673      373.78862      18519.216      19310.776     -78.662803    
    746000   296.80558      373.36257      18521.057      19319.086     -0.14104785   
    747000   298.3847       374.2358       18528.907      19330.068     -60.012081    
    748000   314.27361      369.59178      18526.921      19346.172     -226.43584    
    749000   307.84003      380.33588      18538.662      19359.452      133.6241     
    750000   307.94746      374.49864      18550.053      19365.159     -32.113473    
Loop time of 3.25591 on 48 procs for 10000 steps with 481 atoms

Performance: 13.268 ns/day, 1.809 hours/ns, 3071.334 timesteps/s, 1.477 Matom-step/s
100.0% CPU use with 48 MPI tasks x 1 OpenMP threads

MPI task timing breakdown:
Section |  min time  |  avg time  |  max time  |%varavg| %total
---------------------------------------------------------------
Pair    | 0.0034876  | 0.14517    | 0.85038    |  61.0 |  4.46
Bond    | 0.0010028  | 0.18378    | 0.94098    |  66.8 |  5.64
Neigh   | 0.0067842  | 0.0074105  | 0.0079293  |   0.4 |  0.23
Comm    | 1.2704     | 2.3459     | 2.9477     |  40.8 | 72.05
Output  | 0.0016321  | 0.0026132  | 0.0036525  |   1.2 |  0.08
Modify  | 0.12383    | 0.45301    | 1.7709     |  83.9 | 13.91
Other   |            | 0.1181     |            |       |  3.63

Nlocal:        10.0208 ave          55 max           0 min
Histogram: 25 10 5 0 2 0 2 1 1 2
Nghost:        1818.35 ave        2347 max        1168 min
Histogram: 8 0 0 0 24 0 0 0 0 16
Neighs:              0 ave           0 max           0 min
Histogram: 48 0 0 0 0 0 0 0 0 0

Total # of neighbors = 0
Ave neighs/atom = 0
Ave special neighs/atom = 15.567568
Neighbor list builds = 19
Dangerous builds = 0
fix             myat1 all ave/time 1000 10 10000 v_zave v_zdes file simulation_data/abpot/${cpt}.dat
fix             myat1 all ave/time 1000 10 10000 v_zave v_zdes file simulation_data/abpot/13.dat
run             50000
Generated 0 of 1 mixed pair_coeff terms from geometric mixing rule
Per MPI rank memory allocation (min/avg/max) = 13.32 | 13.77 | 14.98 Mbytes
   Step          Temp          E_pair         E_mol          TotEng         Press     
    750000   307.94746      374.49864      18550.053      19365.159     -32.113473    
    751000   309.50413      367.23381      18558.953      19369.022     -213.58665    
    752000   324.97562      374.19234      18526.528      19365.692      51.828726    
    753000   317.20151      375.71063      18519.789      19349.348      55.611615    
    754000   299.48215      374.65751      18524.798      19327.951      16.173207    
    755000   278.96094      376.60313      18535.461      19311.198      1.6419554    
    756000   297.44596      369.77962      18509.32       19304.682     -117.95276    
    757000   303.93662      373.90096      18495.739      19304.509     -26.566039    
    758000   299.25711      370.76519      18517.107      19316.046     -19.506703    
    759000   301.4516       372.16407      18526.546      19330.023      27.970007    
    760000   294.46665      372.15183      18549.559      19343.03      -116.56972    
    761000   322.51876      380.20869      18510.68       19352.345      141.31467    
    762000   316.37269      374.87717      18525.63       19353.169      84.808969    
    763000   315.27507      373.15826      18529.415      19353.666     -62.877502    
    764000   312.04053      366.82255      18539.097      19352.384     -137.29728    
    765000   294.15075      385.63152      18522.726      19329.225      146.25891    
    766000   294.62038      375.83261      18511.537      19308.909      23.918108    
    767000   293.28448      370.5976       18511.745      19301.971     -78.533162    
    768000   294.87195      362.94266      18517.403      19302.245     -298.19492    
    769000   299.32638      368.78103      18507.339      19304.393     -90.986483    
    770000   300.38184      377.18999      18507.411      19314.384      74.456235    
    771000   303.94535      378.41417      18514.776      19328.072      137.54749    
    772000   318.79242      365.6285       18522.051      19343.804     -114.89207    
    773000   296.52314      367.67835      18553.564      19345.505     -206.4091     
    774000   301.44322      374.5338       18541.361      19347.196      16.101241    
    775000   304.1661       383.42512      18518.347      19336.969      203.73227    
    776000   289.0357       383.26632      18522.282      19319.098      151.34238    
    777000   276.95389      364.03779      18524.481      19284.781     -319.94       
    778000   279.24343      371.96726      18505.026      19276.532     -142.24729    
    779000   279.89494      378.3484       18503.846      19282.665      222.2372     
    780000   294.11181      379.2487       18494.674      19294.735      73.982869    
    781000   296.37342      370.77308      18515.442      19310.263      17.254827    
    782000   293.42036      364.89749      18542.404      19327.125     -314.26246    
    783000   299.20266      378.97189      18531.196      19338.264      74.174625    
    784000   291.14328      379.75684      18547.316      19343.637      40.895275    
    785000   298.88958      370.25928      18549.44       19347.347     -99.236658    
    786000   303.88958      367.38804      18543.786      19345.976     -166.89347    
    787000   307.63093      374.12618      18520.899      19335.18       8.6563503    
    788000   283.9232       377.69904      18527.512      19311.445      96.484558    
    789000   290.94468      374.94229      18508.371      19299.594     -4.2521973    
    790000   289.84527      368.20646      18515.475      19298.389     -289.47671    
    791000   284.14808      368.34135      18523.93       19298.827     -148.25117    
    792000   286.92871      375.04551      18520.381      19305.961      10.319914    
    793000   286.56285      370.21504      18539.362      19319.588     -72.098984    
    794000   288.98491      374.47821      18547.115      19335.07       9.032103     
    795000   310.56545      369.2483       18526.342      19339.944     -130.00798    
    796000   290.39759      371.69591      18550.811      19338.004     -52.937899    
    797000   313.0404       376.86577      18513.915      19338.676     -40.830496    
    798000   310.29058      379.26422      18513.417      19336.641      215.94379    
    799000   290.12406      372.96347      18539.902      19327.972     -18.28673     
    800000   300.21847      363.23517      18522.422      19315.207     -224.87757    
Loop time of 16.4077 on 48 procs for 50000 steps with 481 atoms

Performance: 13.165 ns/day, 1.823 hours/ns, 3047.342 timesteps/s, 1.466 Matom-step/s
100.0% CPU use with 48 MPI tasks x 1 OpenMP threads

MPI task timing breakdown:
Section |  min time  |  avg time  |  max time  |%varavg| %total
---------------------------------------------------------------
Pair    | 0.017487   | 0.72394    | 4.3237     | 136.8 |  4.41
Bond    | 0.0050355  | 0.92002    | 4.798      | 150.0 |  5.61
Neigh   | 0.028849   | 0.031613   | 0.033832   |   0.8 |  0.19
Comm    | 6.1189     | 11.873     | 14.843     |  91.9 | 72.37
Output  | 0.0083005  | 0.013318   | 0.018351   |   2.8 |  0.08
Modify  | 0.64292    | 2.2547     | 9.0761     | 190.3 | 13.74
Other   |            | 0.5907     |            |       |  3.60

Nlocal:        10.0208 ave          52 max           0 min
Histogram: 24 11 5 0 0 2 1 2 2 1
Nghost:        1818.35 ave        2347 max        1171 min
Histogram: 8 0 0 0 24 0 0 0 0 16
Neighs:              0 ave           0 max           0 min
Histogram: 48 0 0 0 0 0 0 0 0 0

Total # of neighbors = 0
Ave neighs/atom = 0
Ave special neighs/atom = 15.567568
Neighbor list builds = 82
Dangerous builds = 0
unfix           myat1
next            cpt
jump            SELF loop
variable        zdes equal  -15+0.30*(${cpt}-1)
variable        zdes equal  -15+0.30*(14-1)
variable        zave equal xcm(H2,z)
fix             mytth2 H2 spring tether ${k1} 2.5 2.5 ${zdes} 0
fix             mytth2 H2 spring tether 0.5 2.5 2.5 ${zdes} 0
fix             mytth2 H2 spring tether 0.5 2.5 2.5 -11.1 0
run             10000
Generated 0 of 1 mixed pair_coeff terms from geometric mixing rule
Per MPI rank memory allocation (min/avg/max) = 13.32 | 13.77 | 14.98 Mbytes
   Step          Temp          E_pair         E_mol          TotEng         Press     
    800000   300.21847      363.23517      18522.422      19315.207     -224.87757    
    801000   296.5998       379.0261       18499.736      19303.133      189.8464     
    802000   295.23618      377.121        18501.892      19301.433      151.3895     
    803000   288.27649      371.49894      18520.289      19304.25      -149.77128    
    804000   304.05097      361.95817      18526.385      19323.376     -208.54491    
    805000   296.45388      365.8007       18555.839      19345.803     -180.69833    
    806000   307.51824      378.1144       18538.756      19356.864      16.345637    
    807000   305.93475      374.02328      18543.312      19355.064     -29.042373    
    808000   322.01428      365.75026      18522.945      19349.43      -212.71268    
    809000   299.49575      368.50959      18545.808      19342.832     -184.21909    
    810000   306.22341      374.61191      18523.018      19335.771      42.84779     
Loop time of 3.2152 on 48 procs for 10000 steps with 481 atoms

Performance: 13.436 ns/day, 1.786 hours/ns, 3110.229 timesteps/s, 1.496 Matom-step/s
100.0% CPU use with 48 MPI tasks x 1 OpenMP threads

MPI task timing breakdown:
Section |  min time  |  avg time  |  max time  |%varavg| %total
---------------------------------------------------------------
Pair    | 0.0034704  | 0.14472    | 0.86783    |  61.4 |  4.50
Bond    | 0.0010039  | 0.18394    | 0.96183    |  67.2 |  5.72
Neigh   | 0.0051551  | 0.0056324  | 0.0059967  |   0.3 |  0.18
Comm    | 1.0837     | 2.3371     | 2.9011     |  41.0 | 72.69
Output  | 0.0016629  | 0.0026551  | 0.0036802  |   1.2 |  0.08
Modify  | 0.12669    | 0.42369    | 1.7607     |  84.3 | 13.18
Other   |            | 0.1175     |            |       |  3.65

Nlocal:        10.0208 ave          46 max           0 min
Histogram: 26 7 5 2 0 0 1 2 2 3
Nghost:        1818.35 ave        2347 max        1177 min
Histogram: 8 0 0 0 24 0 0 0 0 16
Neighs:              0 ave           0 max           0 min
Histogram: 48 0 0 0 0 0 0 0 0 0

Total # of neighbors = 0
Ave neighs/atom = 0
Ave special neighs/atom = 15.567568
Neighbor list builds = 15
Dangerous builds = 0
fix             myat1 all ave/time 1000 10 10000 v_zave v_zdes file simulation_data/abpot/${cpt}.dat
fix             myat1 all ave/time 1000 10 10000 v_zave v_zdes file simulation_data/abpot/14.dat
run             50000
Generated 0 of 1 mixed pair_coeff terms from geometric mixing rule
Per MPI rank memory allocation (min/avg/max) = 13.32 | 13.77 | 14.98 Mbytes
   Step          Temp          E_pair         E_mol          TotEng         Press     
    810000   306.22341      374.61191      18523.018      19335.771      42.84779     
    811000   294.88409      380.00165      18521.743      19323.661      158.75645    
    812000   302.76953      366.07218      18517.457      19316.728     -200.43372    
    813000   296.9325       377.70103      18510.275      19312.824     -27.711068    
    814000   296.21512      367.80758      18522.787      19314.416     -126.54074    
    815000   294.98054      382.19         18515.957      19320.202      138.59013    
    816000   305.29321      374.34287      18516.933      19328.086      42.859315    
    817000   317.56668      370.19885      18515.401      19339.97      -88.659252    
    818000   309.85999      368.90637      18529.244      19341.495     -42.019081    
    819000   297.96157      367.45441      18545.953      19339.728     -175.80688    
    820000   312.09656      378.86256      18516.384      19341.79       248.94751    
    821000   297.62954      374.47544      18541.158      19341.479      82.500267    
    822000   310.52243      378.27874      18521.5        19344.071      67.08127     
    823000   308.62086      368.74932      18532.584      19342.905     -123.07253    
    824000   296.435        373.61007      18536.174      19333.92      -83.905443    
    825000   296.08729      377.28451      18519.584      19320.507      93.416939    
    826000   291.91085      374.55164      18519.563      19311.777      80.469099    
    827000   278.51376      367.98427      18539.353      19305.831     -296.03772    
    828000   297.64688      376.49898      18509.964      19312.332      59.161925    
    829000   296.22938      371.83358      18528.78       19324.455     -54.615353    
    830000   296.08368      379.06577      18541.875      19344.574      88.117681    
    831000   311.84987      374.30346      18539.475      19359.97      -87.692481    
    832000   303.21752      370.39438      18558.339      19362.574     -177.25575    
    833000   300.36075      383.49192      18548.49       19361.735      119.55815    
    834000   307.3788       377.01926      18535.711      19352.525      81.371094    
    835000   311.29581      371.67693      18527.604      19344.68       6.3214667    
    836000   300.62144      371.55127      18532.409      19334.086     -127.35498    
    837000   286.24713      372.54741      18545.829      19327.936     -45.067517    
    838000   287.45765      376.92602      18536.609      19324.826      159.94749    
    839000   303.07905      377.8883       18515.02       19326.55       69.656599    
    840000   298.63019      375.15237      18529.634      19332.063      71.706186    
    841000   308.26327      362.3625       18530.178      19333.6       -255.0531     
    842000   298.27275      372.11993      18533.115      19332         -60.608983    
    843000   292.47992      385.16627      18528.993      19332.637      248.62643    
    844000   292.4708       378.49483      18537.734      19334.693      95.621369    
    845000   302.39318      371.08493      18531.247      19334.993     -122.83892    
    846000   305.44226      358.86574      18543.565      19339.454     -314.88434    
    847000   306.31877      375.09884      18532.503      19345.879      71.752188    
    848000   304.80304      390.23479      18522.701      19349.044      416.14542    
    849000   295.86956      371.409        18549.978      19344.714     -218.27917    
    850000   311.61759      369.35843      18523.57       19338.788     -186.57334    
    851000   294.13539      370.09467      18538.344      19329.285     -181.24709    
    852000   296.25707      382.3406       18512.446      19318.668      119.70981    
    853000   304.18803      383.68075      18493.752      19312.662      242.14637    
    854000   283.54736      356.99611      18546.295      19308.987     -469.25466    
    855000   297.9522       360.90912      18523.011      19310.227     -380.72493    
    856000   288.43202      380.39856      18524.269      19317.352      187.84711    
    857000   295.19742      389.40597      18521.971      19333.742      403.69318    
    858000   323.28246      374.79949      18519.333      19356.681     -146.206      
    859000   310.83299      356.07148      18563.553      19364.361     -449.36938    
    860000   303.88692      371.69707      18554.642      19361.137     -39.785949    
Loop time of 15.8878 on 48 procs for 50000 steps with 481 atoms

Performance: 13.595 ns/day, 1.765 hours/ns, 3147.072 timesteps/s, 1.514 Matom-step/s
100.0% CPU use with 48 MPI tasks x 1 OpenMP threads

MPI task timing breakdown:
Section |  min time  |  avg time  |  max time  |%varavg| %total
---------------------------------------------------------------
Pair    | 0.01741    | 0.72547    | 4.2748     | 136.2 |  4.57
Bond    | 0.0050193  | 0.91937    | 4.3396     | 148.8 |  5.79
Neigh   | 0.02758    | 0.030216   | 0.03238    |   0.8 |  0.19
Comm    | 6.0385     | 11.464     | 14.223     |  89.4 | 72.16
Output  | 0.0081424  | 0.013011   | 0.018113   |   2.7 |  0.08
Modify  | 0.6545     | 2.1459     | 8.5876     | 181.5 | 13.51
Other   |            | 0.5894     |            |       |  3.71

Nlocal:        10.0208 ave          51 max           0 min
Histogram: 25 10 5 0 0 2 1 2 2 1
Nghost:        1818.35 ave        2347 max        1172 min
Histogram: 8 0 0 0 24 0 0 0 0 16
Neighs:              0 ave           0 max           0 min
Histogram: 48 0 0 0 0 0 0 0 0 0

Total # of neighbors = 0
Ave neighs/atom = 0
Ave special neighs/atom = 15.567568
Neighbor list builds = 81
Dangerous builds = 0
unfix           myat1
next            cpt
jump            SELF loop
variable        zdes equal  -15+0.30*(${cpt}-1)
variable        zdes equal  -15+0.30*(15-1)
variable        zave equal xcm(H2,z)
fix             mytth2 H2 spring tether ${k1} 2.5 2.5 ${zdes} 0
fix             mytth2 H2 spring tether 0.5 2.5 2.5 ${zdes} 0
fix             mytth2 H2 spring tether 0.5 2.5 2.5 -10.8 0
run             10000
Generated 0 of 1 mixed pair_coeff terms from geometric mixing rule
Per MPI rank memory allocation (min/avg/max) = 13.32 | 13.77 | 14.98 Mbytes
   Step          Temp          E_pair         E_mol          TotEng         Press     
    860000   303.88692      371.69707      18554.642      19361.137     -39.785949    
    861000   294.32407      382.18975      18546.047      19349.353      229.42891    
    862000   308.45734      379.1379       18517.987      19338.462      53.900622    
    863000   298.14416      365.45576      18536.23       19328.268     -212.95835    
    864000   295.27026      366.18433      18533.859      19322.513     -252.18739    
    865000   291.2156       372.45939      18529.533      19318.661     -13.632471    
    866000   301.0823       375.91075      18509.877      19316.573      19.413566    
    867000   297.90228      374.80609      18516.091      19317.132      81.294204    
    868000   291.93599      363.73769      18533.743      19315.18      -397.08499    
    869000   295.36143      369.63641      18526.535      19318.772     -119.64592    
    870000   309.57506      382.2184       18502.799      19327.954      257.96383    
Loop time of 3.32181 on 48 procs for 10000 steps with 481 atoms

Performance: 13.005 ns/day, 1.845 hours/ns, 3010.410 timesteps/s, 1.448 Matom-step/s
100.0% CPU use with 48 MPI tasks x 1 OpenMP threads

MPI task timing breakdown:
Section |  min time  |  avg time  |  max time  |%varavg| %total
---------------------------------------------------------------
Pair    | 0.0035142  | 0.14527    | 0.89993    |  61.3 |  4.37
Bond    | 0.0010181  | 0.18373    | 0.96776    |  66.7 |  5.53
Neigh   | 0.006555   | 0.0071304  | 0.0076328  |   0.4 |  0.21
Comm    | 1.2423     | 2.4045     | 3.0126     |  41.1 | 72.39
Output  | 0.0017124  | 0.0026857  | 0.0037254  |   1.2 |  0.08
Modify  | 0.13402    | 0.4603     | 1.8228     |  85.4 | 13.86
Other   |            | 0.1182     |            |       |  3.56

Nlocal:        10.0208 ave          52 max           0 min
Histogram: 22 16 2 0 1 1 1 2 2 1
Nghost:        1818.35 ave        2347 max        1178 min
Histogram: 8 0 0 0 24 0 0 0 0 16
Neighs:              0 ave           0 max           0 min
Histogram: 48 0 0 0 0 0 0 0 0 0

Total # of neighbors = 0
Ave neighs/atom = 0
Ave special neighs/atom = 15.567568
Neighbor list builds = 18
Dangerous builds = 0
fix             myat1 all ave/time 1000 10 10000 v_zave v_zdes file simulation_data/abpot/${cpt}.dat
fix             myat1 all ave/time 1000 10 10000 v_zave v_zdes file simulation_data/abpot/15.dat
run             50000
Generated 0 of 1 mixed pair_coeff terms from geometric mixing rule
Per MPI rank memory allocation (min/avg/max) = 13.32 | 13.77 | 14.98 Mbytes
   Step          Temp          E_pair         E_mol          TotEng         Press     
    870000   309.57506      382.2184       18502.799      19327.954      257.96383    
    871000   309.49703      380.06624      18512.582      19335.473      169.69303    
    872000   311.00403      364.83041      18531.882      19341.694     -155.60893    
    873000   308.3073       374.25492      18531.853      19347.231     -160.2512     
    874000   316.31418      377.98022      18517.893      19348.452      147.76378    
    875000   304.85346      378.95301      18530.573      19345.707      106.36143    
    876000   309.17784      371.10733      18530.063      19343.539     -42.200103    
    877000   303.91331      362.05663      18534.727      19331.62      -337.09689    
    878000   305.35751      372.90175      18507.353      19317.157      43.830176    
    879000   290.92623      384.34958      18504.032      19304.636      344.70339    
    880000   285.98971      371.25285      18515.888      19296.331     -28.597599    
    881000   290.39313      370.52335      18512.102      19298.117     -14.940832    
    882000   305.84503      368.36817      18505.259      19311.227     -143.69176    
    883000   294.88181      375.3259       18534.793      19332.033     -15.669793    
    884000   326.14895      381.7453       18499.454      19347.85       328.91109    
    885000   312.12481      369.10032      18536.069      19351.754     -204.18771    
    886000   311.32341      367.26704      18537.935      19350.641     -152.85201    
    887000   310.14425      374.3125       18525.784      19343.848     -33.812327    
    888000   308.85119      373.164        18520.376      19335.441      3.0415368    
    889000   298.10924      379.95776      18522.584      19329.073      93.55176     
    890000   305.70315      370.21306      18517.912      19325.522     -43.91931     
    891000   302.78381      364.89162      18514.365      19312.477     -197.57186    
    892000   287.82255      377.14679      18509.678      19298.638      39.499393    
    893000   288.78802      376.48009      18500.354      19290.029      61.200296    
    894000   284.76649      372.16922      18500.619      19280.229     -62.813777    
    895000   281.59539      366.3448       18511.594      19280.842     -183.73847    
    896000   292.5906       372.38094      18502.799      19293.816      2.4221084    
    897000   300.2483       376.4159       18509.615      19315.623     -24.997234    
    898000   286.7832       380.35386      18539.51       19330.19      -51.638865    
    899000   289.22287      367.15806      18555.96       19336.935     -267.85333    
    900000   319.723        377.50346      18507.357      19342.316     -13.180741    
    901000   312.56769      371.63203      18530.151      19349.001      66.323842    
    902000   316.84297      375.82369      18519.506      19348.665      9.0113371    
    903000   311.09353      374.773        18524.171      19344.054      54.095883    
    904000   305.30121      371.10869      18516.416      19324.347      0.27928571   
    905000   279.93648      367.46593      18533.808      19301.804     -215.27724    
    906000   291.43501      376.30409      18495.692      19288.978     -5.4803271    
    907000   291.51298      382.08988      18492.296      19291.479      258.01598    
    908000   292.32665      371.15598      18515.808      19305.222     -133.78941    
    909000   280.46943      369.26383      18544.932      19315.489     -148.15778    
    910000   297.87627      368.24931      18531.79       19326.237     -63.416522    
    911000   297.34282      383.80981      18519.187      19328.432      76.08309     
    912000   325.44295      377.15147      18492.934      19335.725      159.7724     
    913000   292.23134      368.44334      18552.319      19338.883     -211.35705    
    914000   288.16786      369.10765      18555.56       19336.975     -168.4219     
    915000   302.61179      374.77492      18528.834      19336.582     -56.338609    
    916000   303.52839      383.63635      18516.018      19333.939      197.04334    
    917000   284.63999      374.26693      18545.227      19326.754     -15.558269    
    918000   290.67913      358.60645      18534.858      19309.365     -498.66288    
    919000   272.64405      369.39313      18534.957      19294.446     -149.26788    
    920000   295.20424      378.77586      18483.724      19284.875      111.21693    
Loop time of 16.7175 on 48 procs for 50000 steps with 481 atoms

Performance: 12.921 ns/day, 1.858 hours/ns, 2990.875 timesteps/s, 1.439 Matom-step/s
100.0% CPU use with 48 MPI tasks x 1 OpenMP threads

MPI task timing breakdown:
Section |  min time  |  avg time  |  max time  |%varavg| %total
---------------------------------------------------------------
Pair    | 0.017321   | 0.72493    | 4.3309     | 136.4 |  4.34
Bond    | 0.0050212  | 0.91879    | 4.8482     | 149.9 |  5.50
Neigh   | 0.030125   | 0.032843   | 0.035101   |   0.8 |  0.20
Comm    | 6.3534     | 12.13      | 15.181     |  93.2 | 72.56
Output  | 0.0083569  | 0.013319   | 0.018464   |   2.8 |  0.08
Modify  | 0.62973    | 2.3051     | 9.3031     | 196.4 | 13.79
Other   |            | 0.5925     |            |       |  3.54

Nlocal:        10.0208 ave          55 max           0 min
Histogram: 25 9 6 1 0 0 3 1 2 1
Nghost:        1818.35 ave        2348 max        1175 min
Histogram: 8 0 0 0 24 0 0 0 0 16
Neighs:              0 ave           0 max           0 min
Histogram: 48 0 0 0 0 0 0 0 0 0

Total # of neighbors = 0
Ave neighs/atom = 0
Ave special neighs/atom = 15.567568
Neighbor list builds = 82
Dangerous builds = 0
unfix           myat1
next            cpt
jump            SELF loop
variable        zdes equal  -15+0.30*(${cpt}-1)
variable        zdes equal  -15+0.30*(16-1)
variable        zave equal xcm(H2,z)
fix             mytth2 H2 spring tether ${k1} 2.5 2.5 ${zdes} 0
fix             mytth2 H2 spring tether 0.5 2.5 2.5 ${zdes} 0
fix             mytth2 H2 spring tether 0.5 2.5 2.5 -10.5 0
run             10000
Generated 0 of 1 mixed pair_coeff terms from geometric mixing rule
Per MPI rank memory allocation (min/avg/max) = 13.32 | 13.77 | 14.98 Mbytes
   Step          Temp          E_pair         E_mol          TotEng         Press     
    920000   295.20424      378.77586      18483.724      19284.875      111.21693    
    921000   274.70001      379.2193       18512.263      19284.52       11.051707    
    922000   283.66787      372.26978      18524.676      19302.815     -72.379172    
    923000   304.77031      362.07556      18526.063      19324.201     -394.07122    
    924000   301.43895      370.92316      18531.63       19333.849      13.236602    
    925000   304.46474      377.48605      18522.581      19335.691      29.214765    
    926000   315.60934      381.53808      18506.263      19339.372      221.09387    
    927000   290.45016      367.12591      18560.797      19343.496     -206.26183    
    928000   299.34595      364.03951      18547.289      19339.629     -381.05732    
    929000   293.64964      374.33703      18528.945      19323.433     -45.386822    
    930000   298.03591      378.44211      18500.058      19304.927      214.68847    
Loop time of 3.26031 on 48 procs for 10000 steps with 481 atoms

Performance: 13.250 ns/day, 1.811 hours/ns, 3067.197 timesteps/s, 1.475 Matom-step/s
100.0% CPU use with 48 MPI tasks x 1 OpenMP threads

MPI task timing breakdown:
Section |  min time  |  avg time  |  max time  |%varavg| %total
---------------------------------------------------------------
Pair    | 0.0034564  | 0.14491    | 0.87831    |  60.9 |  4.44
Bond    | 0.0010358  | 0.18368    | 0.9145     |  66.7 |  5.63
Neigh   | 0.0063526  | 0.0069867  | 0.0074545  |   0.4 |  0.21
Comm    | 1.2616     | 2.3615     | 2.9503     |  40.7 | 72.43
Output  | 0.0016589  | 0.0026322  | 0.0036648  |   1.2 |  0.08
Modify  | 0.12567    | 0.44264    | 1.7744     |  84.5 | 13.58
Other   |            | 0.118      |            |       |  3.62

Nlocal:        10.0208 ave          52 max           0 min
Histogram: 26 8 6 0 0 1 3 1 2 1
Nghost:        1818.88 ave        2348 max        1172 min
Histogram: 8 0 0 0 24 0 0 0 0 16
Neighs:              0 ave           0 max           0 min
Histogram: 48 0 0 0 0 0 0 0 0 0

Total # of neighbors = 0
Ave neighs/atom = 0
Ave special neighs/atom = 15.567568
Neighbor list builds = 18
Dangerous builds = 0
fix             myat1 all ave/time 1000 10 10000 v_zave v_zdes file simulation_data/abpot/${cpt}.dat
fix             myat1 all ave/time 1000 10 10000 v_zave v_zdes file simulation_data/abpot/16.dat
run             50000
Generated 0 of 1 mixed pair_coeff terms from geometric mixing rule
Per MPI rank memory allocation (min/avg/max) = 13.32 | 13.77 | 14.98 Mbytes
   Step          Temp          E_pair         E_mol          TotEng         Press     
    930000   298.03591      378.44211      18500.058      19304.927      214.68847    
    931000   289.65356      376.63065      18499.99       19291.054      71.803361    
    932000   287.11101      367.25118      18508.796      19286.843     -130.86824    
    933000   282.46368      358.25077      18531.46       19293.856     -364.43453    
    934000   298.3802       380.53098      18515.548      19322.998      200.28697    
    935000   307.16476      377.52876      18527.854      19344.871      69.161866    
    936000   299.22721      372.29099      18549.288      19349.71      -64.070983    
    937000   303.70425      375.01721      18542.859      19352.413     -97.358267    
    938000   300.20805      374.13227      18549.093      19352.76       79.560473    
    939000   299.66191      371.39052      18543.51       19343.654     -73.810694    
    940000   295.80812      375.53976      18531.086      19329.864     -97.6232      
    941000   289.11544      367.82556      18532.262      19313.751     -196.71798    
    942000   300.45033      379.44236      18495.401      19304.724      100.57628    
    943000   296.08433      373.97077      18504.839      19302.444     -84.798487    
    944000   291.21577      372.73369      18520.26       19309.662     -54.11939     
    945000   292.31324      368.51408      18539.876      19326.628     -160.89919    
    946000   313.40397      370.19082      18527.388      19345.994     -140.00541    
    947000   311.45946      378.49851      18535.147      19359.278      77.955074    
    948000   306.39849      372.88845      18549.111      19360.391     -49.686721    
    949000   314.89827      372.26036      18535.832      19358.645      33.016934    
    950000   317.22016      364.98668      18530.652      19349.514     -162.99819    
    951000   298.41187      376.38739      18533.992      19337.344      54.112296    
    952000   299.50016      376.18287      18524.815      19329.519      16.772962    
    953000   292.97375      380.76         18518.778      19318.722      255.68494    
    954000   291.68924      370.68844      18523.859      19311.893     -74.125824    
    955000   297.85128      367.22693      18515.193      19308.582     -129.05284    
    956000   289.85212      371.26615      18524.093      19310.076     -88.476142    
    957000   309.53756      378.53035      18503.584      19324.998      213.07554    
    958000   319.2238       377.55217      18517.037      19351.331      78.880281    
    959000   318.16816      365.88726      18544.133      19365.251     -216.94925    
    960000   331.18045      370.67568      18521.861      19366.386     -62.157804    
    961000   302.13231      375.90436      18548.282      19356.473      18.383702    
    962000   305.24887      378.67585      18524.1        19339.522      101.26766    
    963000   303.34002      369.67411      18525.43       19329.12      -94.753913    
    964000   301.72271      372.88274      18520.291      19324.875     -53.060068    
    965000   297.19504      370.91791      18525.011      19321.153     -106.39107    
    966000   287.22178      374.43909      18529.487      19314.88      -39.583274    
    967000   289.06668      373.70241      18524.873      19312.169      2.1970186    
    968000   295.20751      366.71828      18526.994      19316.091     -194.46538    
    969000   305.4232       368.62213      18523.649      19329.267     -6.617321     
    970000   292.98122      374.82449      18554.573      19348.592     -86.205534    
    971000   311.36083      375.83792      18554.29       19375.62      -54.588233    
    972000   324.85278      376.37743      18548.669      19389.842     -5.0986448    
    973000   316.40517      370.95356      18558.753      19382.416     -137.48863    
    974000   328.0581       378.78549      18525.479      19373.647      19.588235    
    975000   300.59006      376.42471      18555.987      19362.492      52.525316    
    976000   307.97432      373.32619      18535.364      19349.336     -15.483758    
    977000   289.73579      365.39383      18553.599      19333.544     -196.24282    
    978000   305.20267      374.43307      18510.403      19321.517     -48.965576    
    979000   298.41766      372.35967      18512.918      19312.25      -37.408939    
    980000   292.84531      373.35531      18520.463      19312.818     -31.161829    
Loop time of 16.8691 on 48 procs for 50000 steps with 481 atoms

Performance: 12.804 ns/day, 1.874 hours/ns, 2963.995 timesteps/s, 1.426 Matom-step/s
100.0% CPU use with 48 MPI tasks x 1 OpenMP threads

MPI task timing breakdown:
Section |  min time  |  avg time  |  max time  |%varavg| %total
---------------------------------------------------------------
Pair    | 0.0174     | 0.72443    | 4.2097     | 135.3 |  4.29
Bond    | 0.0050921  | 0.9188     | 4.5901     | 149.2 |  5.45
Neigh   | 0.043138   | 0.047183   | 0.050341   |   0.9 |  0.28
Comm    | 6.6454     | 12.228     | 15.311     |  93.3 | 72.49
Output  | 0.0083704  | 0.013297   | 0.01831    |   2.7 |  0.08
Modify  | 0.62698    | 2.3467     | 9.5371     | 197.7 | 13.91
Other   |            | 0.5908     |            |       |  3.50

Nlocal:        10.0208 ave          49 max           0 min
Histogram: 23 10 7 0 0 1 3 0 1 3
Nghost:        1818.35 ave        2348 max        1174 min
Histogram: 8 0 0 0 24 0 0 0 0 16
Neighs:              0 ave           0 max           0 min
Histogram: 48 0 0 0 0 0 0 0 0 0

Total # of neighbors = 0
Ave neighs/atom = 0
Ave special neighs/atom = 15.567568
Neighbor list builds = 120
Dangerous builds = 0
unfix           myat1
next            cpt
jump            SELF loop
variable        zdes equal  -15+0.30*(${cpt}-1)
variable        zdes equal  -15+0.30*(17-1)
variable        zave equal xcm(H2,z)
fix             mytth2 H2 spring tether ${k1} 2.5 2.5 ${zdes} 0
fix             mytth2 H2 spring tether 0.5 2.5 2.5 ${zdes} 0
fix             mytth2 H2 spring tether 0.5 2.5 2.5 -10.2 0
run             10000
Generated 0 of 1 mixed pair_coeff terms from geometric mixing rule
Per MPI rank memory allocation (min/avg/max) = 13.32 | 13.77 | 14.98 Mbytes
   Step          Temp          E_pair         E_mol          TotEng         Press     
    980000   292.84531      373.35531      18520.463      19312.818     -31.161829    
    981000   308.93829      368.653        18508.016      19318.694     -170.57455    
    982000   306.51471      375.22314      18514.211      19327.992      51.090543    
    983000   304.85227      372.63669      18536.117      19344.933     -21.005874    
    984000   308.36554      371.42788      18549.607      19362.241     -239.5021     
    985000   318.72203      378.81689      18540.962      19375.803      120.8645     
    986000   319.77091      377.38525      18544.112      19379.022      90.526149    
    987000   313.31107      370.74266      18549.569      19368.593     -125.71525    
    988000   315.74551      366.77489      18527.827      19346.367     -171.42795    
    989000   308.40791      376.08346      18515.453      19332.803      75.255851    
    990000   311.80538      376.83535      18502.969      19325.932      90.829684    
Loop time of 3.28364 on 48 procs for 10000 steps with 481 atoms

Performance: 13.156 ns/day, 1.824 hours/ns, 3045.405 timesteps/s, 1.465 Matom-step/s
100.0% CPU use with 48 MPI tasks x 1 OpenMP threads

MPI task timing breakdown:
Section |  min time  |  avg time  |  max time  |%varavg| %total
---------------------------------------------------------------
Pair    | 0.0034789  | 0.14537    | 0.79703    |  60.4 |  4.43
Bond    | 0.001014   | 0.18411    | 0.93353    |  66.7 |  5.61
Neigh   | 0.0086469  | 0.0094949  | 0.010185   |   0.4 |  0.29
Comm    | 1.2943     | 2.3835     | 2.9698     |  40.9 | 72.59
Output  | 0.0016807  | 0.0026708  | 0.0037237  |   1.2 |  0.08
Modify  | 0.12685    | 0.44068    | 1.8037     |  85.5 | 13.42
Other   |            | 0.1178     |            |       |  3.59

Nlocal:        10.0208 ave          50 max           0 min
Histogram: 22 10 8 0 0 1 2 1 2 2
Nghost:        1818.35 ave        2348 max        1176 min
Histogram: 8 0 0 0 24 0 0 0 0 16
Neighs:              0 ave           0 max           0 min
Histogram: 48 0 0 0 0 0 0 0 0 0

Total # of neighbors = 0
Ave neighs/atom = 0
Ave special neighs/atom = 15.567568
Neighbor list builds = 25
Dangerous builds = 0
fix             myat1 all ave/time 1000 10 10000 v_zave v_zdes file simulation_data/abpot/${cpt}.dat
fix             myat1 all ave/time 1000 10 10000 v_zave v_zdes file simulation_data/abpot/17.dat
run             50000
Generated 0 of 1 mixed pair_coeff terms from geometric mixing rule
Per MPI rank memory allocation (min/avg/max) = 13.32 | 13.78 | 14.98 Mbytes
   Step          Temp          E_pair         E_mol          TotEng         Press     
    990000   311.80538      376.83535      18502.969      19325.932      90.829684    
    991000   291.77403      379.39117      18522.749      19319.607      162.4573     
    992000   302.36295      368.17323      18518.191      19318.982     -62.581712    
    993000   296.37201      368.48148      18527.56       19320.088     -227.01416    
    994000   304.5112       374.28725      18511.965      19321.944     -24.709409    
    995000   301.18922      386.36004      18508.413      19325.711      246.75958    
    996000   306.26848      374.76913      18521.073      19334.047     -187.96975    
    997000   296.47392      365.0758       18551.666      19340.933     -390.49932    
    998000   321.2339       377.03082      18517.828      19354.477      53.593106    
    999000   316.48817      381.03124      18526.839      19360.698      123.7433     
   1000000   320.9617       376.99909      18525.06       19361.288     -36.964926    
   1001000   322.023        367.31778      18525.141      19353.206     -191.03302    
   1002000   323.3785       361.84676      18504.324      19328.857     -231.2275     
   1003000   289.29171      376.98215      18516.87       19307.768      20.601815    
   1004000   296.22271      380.45189      18498.667      19302.951      209.58957    
   1005000   309.6321       367.33794      18494.088      19304.444     -228.94547    
   1006000   309.08905      364.92879      18502.496      19309.666     -187.03736    
   1007000   296.95448      373.52978      18519.725      19318.134      37.260954    
   1008000   301.07939      378.32135      18524.437      19333.539      82.008586    
   1009000   299.14082      378.52934      18541.917      19348.453      94.790288    
   1010000   319.81086      370.10671      18529.349      19357.038     -9.6897273    
   1011000   308.52356      375.67895      18539.85       19356.961      73.525411    
   1012000   298.2639       375.37092      18550.747      19352.87      -65.461777    
   1013000   306.59694      375.48789      18515.709      19329.873      61.824081    
   1014000   297.98437      369.16693      18499.028      19294.548     -130.19056    
   1015000   291.57632      366.12909      18505.558      19288.871     -143.37447    
   1016000   291.02128      380.71858      18496.043      19293.151      137.08835    
   1017000   293.00669      368.84706      18516.878      19304.956     -183.78824    
   1018000   299.59351      376.70726      18518.819      19324.181     -30.540076    
   1019000   325.32618      373.04217      18500.932      19339.447     -50.453812    
   1020000   302.37107      372.43471      18538.025      19343.089     -69.671328    
   1021000   314.37389      371.01205      18529.342      19350.157     -73.393106    
   1022000   325.37379      374.6037       18510.503      19350.648      11.883683    
   1023000   309.27989      368.07185      18532.453      19343.039     -92.331896    
   1024000   306.93988      373.46105      18516.342      19328.969      68.090248    
   1025000   296.14822      373.69544      18513.312      19310.733      43.344723    
   1026000   284.91573      376.68127      18510.333      19294.669      74.839905    
   1027000   287.82347      365.91608      18512.298      19290.029     -250.78995    
   1028000   277.63619      370.73636      18525.704      19293.679      35.770544    
   1029000   287.73973      375.66083      18517.918      19305.274      58.583607    
   1030000   295.9706       371.30702      18519.929      19314.707      15.759621    
   1031000   314.85667      376.70722      18496.775      19323.975      33.426144    
   1032000   296.79622      368.77039      18533.755      19327.178     -87.299353    
   1033000   287.08717      367.63935      18548.787      19327.188     -82.988387    
   1034000   283.88872      371.95018      18551.28       19329.415     -80.204493    
   1035000   290.63997      368.81132      18552.811      19337.467     -160.83451    
   1036000   294.50579      375.64029      18546.82       19343.836      146.23896    
   1037000   305.77113      374.76591      18536.885      19349.145     -37.116132    
   1038000   302.43267      374.33565      18547.189      19354.241      115.53579    
   1039000   306.91589      363.06399      18547.45       19349.646     -305.16451    
   1040000   303.947        370.30266      18531.103      19336.289     -158.98588    
Loop time of 16.264 on 48 procs for 50000 steps with 481 atoms

Performance: 13.281 ns/day, 1.807 hours/ns, 3074.278 timesteps/s, 1.479 Matom-step/s
100.0% CPU use with 48 MPI tasks x 1 OpenMP threads

MPI task timing breakdown:
Section |  min time  |  avg time  |  max time  |%varavg| %total
---------------------------------------------------------------
Pair    | 0.017498   | 0.72584    | 4.1965     | 135.8 |  4.46
Bond    | 0.005076   | 0.91995    | 4.7974     | 149.5 |  5.66
Neigh   | 0.036139   | 0.039638   | 0.042413   |   0.9 |  0.24
Comm    | 6.2954     | 11.696     | 14.699     |  90.0 | 71.91
Output  | 0.0083148  | 0.013297   | 0.018268   |   2.8 |  0.08
Modify  | 0.63488    | 2.2805     | 8.8475     | 184.1 | 14.02
Other   |            | 0.5892     |            |       |  3.62

Nlocal:        10.0208 ave          54 max           0 min
Histogram: 27 8 5 1 0 0 1 5 0 1
Nghost:        1818.35 ave        2348 max        1180 min
Histogram: 8 0 0 0 24 0 0 0 0 16
Neighs:              0 ave           0 max           0 min
Histogram: 48 0 0 0 0 0 0 0 0 0

Total # of neighbors = 0
Ave neighs/atom = 0
Ave special neighs/atom = 15.567568
Neighbor list builds = 105
Dangerous builds = 0
unfix           myat1
next            cpt
jump            SELF loop
variable        zdes equal  -15+0.30*(${cpt}-1)
variable        zdes equal  -15+0.30*(18-1)
variable        zave equal xcm(H2,z)
fix             mytth2 H2 spring tether ${k1} 2.5 2.5 ${zdes} 0
fix             mytth2 H2 spring tether 0.5 2.5 2.5 ${zdes} 0
fix             mytth2 H2 spring tether 0.5 2.5 2.5 -9.9 0
run             10000
Generated 0 of 1 mixed pair_coeff terms from geometric mixing rule
Per MPI rank memory allocation (min/avg/max) = 13.32 | 13.79 | 14.98 Mbytes
   Step          Temp          E_pair         E_mol          TotEng         Press     
   1040000   303.947        370.30266      18531.103      19336.289     -158.98588    
   1041000   296.2672       380.22027      18519.322      19323.438      179.59535    
   1042000   300.08784      376.03387      18504.362      19309.758      168.25178    
   1043000   300.83219      358.42166      18510.333      19299.182     -281.29845    
   1044000   293.09575      359.25877      18519.285      19297.902     -288.79574    
   1045000   298.95771      378.47492      18494.587      19300.807      164.19287    
   1046000   284.48022      376.46896      18524.697      19308.197      100.14561    
   1047000   296.13797      369.80837      18545.235      19338.755     -148.25118    
   1048000   321.89099      361.99267      18537.816      19360.367     -185.63092    
   1049000   311.66104      366.15649      18544.941      19357.018     -222.25397    
   1050000   319.30209      378.61656      18513.59       19349.06       136.78145    
Loop time of 3.2743 on 48 procs for 10000 steps with 481 atoms

Performance: 13.194 ns/day, 1.819 hours/ns, 3054.092 timesteps/s, 1.469 Matom-step/s
100.0% CPU use with 48 MPI tasks x 1 OpenMP threads

MPI task timing breakdown:
Section |  min time  |  avg time  |  max time  |%varavg| %total
---------------------------------------------------------------
Pair    | 0.0035138  | 0.14524    | 0.88084    |  61.4 |  4.44
Bond    | 0.0010081  | 0.184      | 0.96866    |  67.0 |  5.62
Neigh   | 0.0035449  | 0.0038716  | 0.0041351  |   0.3 |  0.12
Comm    | 1.1688     | 2.3702     | 2.9629     |  41.7 | 72.39
Output  | 0.0016653  | 0.0030088  | 0.004539   |   1.8 |  0.09
Modify  | 0.12667    | 0.44909    | 1.8268     |  86.4 | 13.72
Other   |            | 0.1189     |            |       |  3.63

Nlocal:        10.0208 ave          46 max           0 min
Histogram: 22 11 7 0 0 1 0 2 2 3
Nghost:        1818.35 ave        2347 max        1178 min
Histogram: 8 0 0 0 24 0 0 0 0 16
Neighs:              0 ave           0 max           0 min
Histogram: 48 0 0 0 0 0 0 0 0 0

Total # of neighbors = 0
Ave neighs/atom = 0
Ave special neighs/atom = 15.567568
Neighbor list builds = 10
Dangerous builds = 0
fix             myat1 all ave/time 1000 10 10000 v_zave v_zdes file simulation_data/abpot/${cpt}.dat
fix             myat1 all ave/time 1000 10 10000 v_zave v_zdes file simulation_data/abpot/18.dat
run             50000
Generated 0 of 1 mixed pair_coeff terms from geometric mixing rule
Per MPI rank memory allocation (min/avg/max) = 13.32 | 13.79 | 14.98 Mbytes
   Step          Temp          E_pair         E_mol          TotEng         Press     
   1050000   319.30209      378.61656      18513.59       19349.06       136.78145    
   1051000   305.52665      379.73143      18523.822      19340.698      207.24629    
   1052000   310.98291      365.77204      18518.704      19329.427     -111.50329    
   1053000   291.62599      360.4565       18535.99       19313.702     -430.31149    
   1054000   291.27664      374.8046       18515.392      19306.952      106.41025    
   1055000   304.00923      380.99058      18490.032      19305.996      168.22419    
   1056000   284.85374      368.7601       18532.363      19308.689     -142.61464    
   1057000   303.57359      362.68482      18521.163      19318.197     -279.0938     
   1058000   313.73243      373.94794      18521.942      19344.775      4.1283801    
   1059000   315.27246      377.07403      18539.159      19367.321      124.68218    
   1060000   298.98749      377.15944      18565.293      19370.241      29.582825    
   1061000   312.1923       368.15826      18555.65       19370.489     -63.005399    
   1062000   290.69686      365.7931       18575.093      19356.812     -202.36207    
   1063000   296.73099      376.22619      18541.565      19342.35       129.19808    
   1064000   309.87917      378.03771      18504.172      19325.581      120.49599    
   1065000   300.42102      373.87023      18512.584      19316.293      100.28042    
   1066000   294.40334      359.81354      18531.956      19312.998     -378.28559    
   1067000   297.92753      368.72172      18522.779      19317.772     -117.33943    
   1068000   288.59813      374.14273      18536.334      19323.4        28.234981    
   1069000   289.727        374.91409      18538.738      19328.191      217.96302    
   1070000   307.29974      363.17049      18547.832      19350.683     -184.80184    
   1071000   332.71544      362.90203      18536.71       19375.657     -304.65707    
   1072000   303.86163      373.26218      18571.505      19379.529     -49.953931    
   1073000   307.33058      383.0116       18554.524      19377.261      229.58973    
   1074000   316.98531      370.20416      18547.547      19371.29       43.596105    
   1075000   295.81885      360.36063      18568.329      19351.944     -164.17462    
   1076000   312.99909      365.68798      18523.655      19337.179     -114.49067    
   1077000   285.96026      374.18288      18544.494      19327.826      32.031585    
   1078000   297.182        377.45018      18522.273      19324.927      162.93969    
   1079000   275.66573      364.82372      18565.808      19325.051     -205.35305    
   1080000   300.91602      360.95244      18543.306      19334.806     -227.81909    
   1081000   304.78426      371.3688       18531.093      19338.543     -7.1761422    
   1082000   304.53888      372.37282      18531.406      19339.509      81.974411    
   1083000   301.74224      376.36932      18533.787      19341.885      226.31656    
   1084000   309.666        370.57087      18539.283      19352.92       5.57589      
   1085000   310.47112      368.44065      18552.494      19365.153     -110.70871    
   1086000   314.2145       373.61386      18546.575      19369.764      73.730712    
   1087000   321.56878      371.50788      18528.35       19359.955     -93.181911    
   1088000   291.79513      376.04509      18547.486      19341.028      141.03552    
   1089000   301.09077      373.08797      18520.069      19323.954     -10.544574    
   1090000   297.86956      366.60754      18522.852      19315.648     -17.971483    
   1091000   288.57865      368.03447      18530.666      19311.596     -235.34034    
   1092000   299.93208      371.48268      18512.405      19313.028     -66.58674     
   1093000   309.84746      377.58541      18498.287      19319.199      237.424      
   1094000   294.0198       372.11471      18534.389      19327.184     -96.915897    
   1095000   293.50003      356.78181      18561.685      19338.403     -417.3233     
   1096000   310.00138      372.98163      18534.864      19351.392      144.90154    
   1097000   303.51023      381.44099      18559.362      19375.062      250.16389    
   1098000   326.57753      371.0405       18562.873      19401.177     -107.09408    
   1099000   316.05105      366.76936      18589.137      19408.109     -188.15773    
   1100000   327.28556      377.01127      18560.15       19405.437      172.48843    
Loop time of 16.2424 on 48 procs for 50000 steps with 481 atoms

Performance: 13.299 ns/day, 1.805 hours/ns, 3078.367 timesteps/s, 1.481 Matom-step/s
100.0% CPU use with 48 MPI tasks x 1 OpenMP threads

MPI task timing breakdown:
Section |  min time  |  avg time  |  max time  |%varavg| %total
---------------------------------------------------------------
Pair    | 0.017561   | 0.72519    | 4.5146     | 137.1 |  4.46
Bond    | 0.0050344  | 0.92057    | 4.6086     | 149.1 |  5.67
Neigh   | 0.026211   | 0.028693   | 0.030713   |   0.7 |  0.18
Comm    | 6.2297     | 11.673     | 14.415     |  90.6 | 71.87
Output  | 0.008257   | 0.01327    | 0.018388   |   2.8 |  0.08
Modify  | 0.63541    | 2.2925     | 8.9831     | 185.2 | 14.11
Other   |            | 0.5896     |            |       |  3.63

Nlocal:        10.0208 ave          49 max           0 min
Histogram: 23 9 8 0 0 2 2 0 0 4
Nghost:        1818.35 ave        2347 max        1174 min
Histogram: 8 0 0 0 24 0 0 0 0 16
Neighs:              0 ave           0 max           0 min
Histogram: 48 0 0 0 0 0 0 0 0 0

Total # of neighbors = 0
Ave neighs/atom = 0
Ave special neighs/atom = 15.567568
Neighbor list builds = 75
Dangerous builds = 0
unfix           myat1
next            cpt
jump            SELF loop
variable        zdes equal  -15+0.30*(${cpt}-1)
variable        zdes equal  -15+0.30*(19-1)
variable        zave equal xcm(H2,z)
fix             mytth2 H2 spring tether ${k1} 2.5 2.5 ${zdes} 0
fix             mytth2 H2 spring tether 0.5 2.5 2.5 ${zdes} 0
fix             mytth2 H2 spring tether 0.5 2.5 2.5 -9.6 0
run             10000
Generated 0 of 1 mixed pair_coeff terms from geometric mixing rule
Per MPI rank memory allocation (min/avg/max) = 13.32 | 13.79 | 14.98 Mbytes
   Step          Temp          E_pair         E_mol          TotEng         Press     
   1100000   327.28556      377.01127      18560.15       19405.437      172.48843    
   1101000   316.70738      372.64908      18563.907      19389.698      11.214753    
   1102000   314.51063      367.78147      18554.183      19371.962     -116.20755    
   1103000   305.33145      364.89241      18556.251      19358.009     -196.99429    
   1104000   301.75316      371.16225      18541.5        19344.407      2.0359018    
   1105000   308.34927      377.47372      18511.183      19329.839      167.13138    
   1106000   294.56261      366.76991      18532.715      19320.942     -81.443942    
   1107000   305.62039      368.58491      18510.631      19316.494      6.0906945    
   1108000   301.54208      366.23998      18515.2        19312.883     -199.25578    
   1109000   282.04967      371.94399      18536.288      19311.786      35.596279    
   1110000   312.30484      371.51528      18505.943      19324.3        162.47642    
Loop time of 3.24431 on 48 procs for 10000 steps with 481 atoms

Performance: 13.316 ns/day, 1.802 hours/ns, 3082.322 timesteps/s, 1.483 Matom-step/s
100.0% CPU use with 48 MPI tasks x 1 OpenMP threads

MPI task timing breakdown:
Section |  min time  |  avg time  |  max time  |%varavg| %total
---------------------------------------------------------------
Pair    | 0.0034848  | 0.1449     | 0.92308    |  61.8 |  4.47
Bond    | 0.0010092  | 0.18402    | 0.95214    |  66.8 |  5.67
Neigh   | 0.0054361  | 0.0059813  | 0.0064215  |   0.3 |  0.18
Comm    | 1.1178     | 2.3542     | 2.933      |  40.9 | 72.57
Output  | 0.0016003  | 0.0025649  | 0.0036179  |   1.2 |  0.08
Modify  | 0.12641    | 0.43513    | 1.7727     |  84.5 | 13.41
Other   |            | 0.1175     |            |       |  3.62

Nlocal:        10.0208 ave          46 max           0 min
Histogram: 23 8 8 1 0 0 0 2 4 2
Nghost:        1818.35 ave        2347 max        1177 min
Histogram: 8 0 0 0 24 0 0 0 0 16
Neighs:              0 ave           0 max           0 min
Histogram: 48 0 0 0 0 0 0 0 0 0

Total # of neighbors = 0
Ave neighs/atom = 0
Ave special neighs/atom = 15.567568
Neighbor list builds = 16
Dangerous builds = 0
fix             myat1 all ave/time 1000 10 10000 v_zave v_zdes file simulation_data/abpot/${cpt}.dat
fix             myat1 all ave/time 1000 10 10000 v_zave v_zdes file simulation_data/abpot/19.dat
run             50000
Generated 0 of 1 mixed pair_coeff terms from geometric mixing rule
Per MPI rank memory allocation (min/avg/max) = 13.32 | 13.79 | 14.98 Mbytes
   Step          Temp          E_pair         E_mol          TotEng         Press     
   1110000   312.30484      371.51528      18505.943      19324.3        162.47642    
   1111000   302.9856       366.75681      18549.369      19349.635     -104.29467    
   1112000   321.47406      364.53968      18544.408      19368.909     -126.77431    
   1113000   318.60269      368.42401      18543.674      19367.951     -59.499331    
   1114000   306.64615      374.30664      18546.056      19359.109      44.851587    
   1115000   311.87825      380.25717      18524.044      19350.533      281.14155    
   1116000   309.82727      365.26043      18532.901      19341.459     -6.2930459    
   1117000   314.22671      364.29394      18517.41       19331.296     -288.8116     
   1118000   300.14252      370.97848      18519.482      19319.901      20.915529    
   1119000   292.8778       377.94636      18519.115      19316.108      315.01205    
   1120000   303.2606       376.2365       18509.246      19319.384      49.177848    
   1121000   291.59021      363.20563      18542.182      19322.592     -200.5886     
   1122000   309.72195      369.29572      18517.143      19329.586      9.5473242    
   1123000   301.31043      380.22694      18527.131      19338.469      146.74674    
   1124000   283.97313      376.00523      18560.371      19342.682     -59.432689    
   1125000   302.25678      373.40604      18544.288      19350.16      -41.416016    
   1126000   312.11149      367.73975      18552.643      19366.948     -143.62044    
   1127000   330.73156      373.13839      18535.37       19381.716      24.241062    
   1128000   323.65097      380.37106      18543.699      19387.146      276.39153    
   1129000   301.58691      369.92275      18574.898      19376.328     -189.44574    
   1130000   303.35748      367.23657      18551.869      19353.146     -197.26446    
   1131000   311.58316      378.56454      18510.89       19335.265      59.50817     
   1132000   299.9068       375.50137      18523.321      19327.926      107.82112    
   1133000   293.83463      374.75361      18527.935      19323.104      76.555137    
   1134000   309.73177      355.27645      18524.814      19323.252     -385.42351    
   1135000   288.58438      368.01859      18542.071      19322.993     -145.30396    
   1136000   284.66132      384.94129      18529.369      19321.601      310.0844     
   1137000   291.46804      375.89943      18533.492      19326.42      -32.999335    
   1138000   288.75554      366.72473      18553.583      19333.456     -137.95989    
   1139000   302.37183      362.90966      18553.261      19348.801     -360.72774    
   1140000   317.19391      375.46304      18536.994      19366.295      218.46328    
   1141000   309.72878      382.91305      18545.393      19371.463      264.34047    
   1142000   319.32872      367.5093       18540.554      19364.955     -67.962608    
   1143000   307.56556      365.63823      18537.423      19343.123     -219.78087    
   1144000   283.84086      369.60667      18542.969      19318.692     -52.581518    
   1145000   286.94921      372.31622      18530.316      19313.196     -78.33559     
   1146000   292.45807      379.94666      18516.678      19315.071      221.2785     
   1147000   297.14153      370.93444      18524.677      19320.758      24.425734    
   1148000   301.89664      362.08249      18532.08       19326.113     -328.83686    
   1149000   300.34751      379.53252      18523.089      19332.355      272.87254    
   1150000   303.94325      383.11183      18524.499      19342.489      205.10576    
   1151000   317.01088      365.807        18538.935      19358.318     -163.9085     
   1152000   309.98458      369.30973      18555.073      19367.905     -144.05328    
   1153000   308.14843      370.89523      18563.3        19375.09      -90.729905    
   1154000   324.05165      380.1986       18523.067      19366.915      215.83587    
   1155000   297.93336      374.52729      18541.353      19342.16       35.84002     
   1156000   295.00324      361.03372      18540.583      19323.704     -405.2662     
   1157000   294.51549      370.99841      18521.712      19314.1       -90.154579    
   1158000   279.55723      376.39723      18534.17       19310.554     -36.13958     
   1159000   277.48016      378.84088      18533.859      19309.715      8.5453468    
   1160000   296.08875      366.32876      18528.245      19318.214     -140.67449    
Loop time of 16.2069 on 48 procs for 50000 steps with 481 atoms

Performance: 13.328 ns/day, 1.801 hours/ns, 3085.098 timesteps/s, 1.484 Matom-step/s
100.0% CPU use with 48 MPI tasks x 1 OpenMP threads

MPI task timing breakdown:
Section |  min time  |  avg time  |  max time  |%varavg| %total
---------------------------------------------------------------
Pair    | 0.017501   | 0.72471    | 4.6476     | 138.0 |  4.47
Bond    | 0.0050132  | 0.91953    | 4.7558     | 149.5 |  5.67
Neigh   | 0.021754   | 0.023832   | 0.025555   |   0.7 |  0.15
Comm    | 5.9347     | 11.718     | 14.445     |  91.4 | 72.30
Output  | 0.0081167  | 0.013074   | 0.018211   |   2.8 |  0.08
Modify  | 0.63577    | 2.2188     | 8.8979     | 187.7 | 13.69
Other   |            | 0.5892     |            |       |  3.64

Nlocal:        10.0208 ave          45 max           0 min
Histogram: 22 9 8 1 0 0 0 3 1 4
Nghost:        1818.35 ave        2347 max        1178 min
Histogram: 8 0 0 0 24 0 0 0 0 16
Neighs:              0 ave           0 max           0 min
Histogram: 48 0 0 0 0 0 0 0 0 0

Total # of neighbors = 0
Ave neighs/atom = 0
Ave special neighs/atom = 15.567568
Neighbor list builds = 63
Dangerous builds = 0
unfix           myat1
next            cpt
jump            SELF loop
variable        zdes equal  -15+0.30*(${cpt}-1)
variable        zdes equal  -15+0.30*(20-1)
variable        zave equal xcm(H2,z)
fix             mytth2 H2 spring tether ${k1} 2.5 2.5 ${zdes} 0
fix             mytth2 H2 spring tether 0.5 2.5 2.5 ${zdes} 0
fix             mytth2 H2 spring tether 0.5 2.5 2.5 -9.3 0
run             10000
Generated 0 of 1 mixed pair_coeff terms from geometric mixing rule
Per MPI rank memory allocation (min/avg/max) = 13.32 | 13.79 | 14.98 Mbytes
   Step          Temp          E_pair         E_mol          TotEng         Press     
   1160000   296.08875      366.32876      18528.245      19318.214     -140.67449    
   1161000   297.6697       365.68065      18540.643      19332.226     -339.83151    
   1162000   301.31425      373.64424      18540.853      19345.615      38.408563    
   1163000   314.82467      379.01751      18528.076      19357.541      158.33912    
   1164000   305.97904      380.82656      18544.273      19362.891      61.563913    
   1165000   312.9131       359.3113       18562.939      19369.963     -345.02377    
   1166000   307.02751      364.9688       18558.414      19362.675     -226.51787    
   1167000   300.73855      380.90725      18523.416      19334.616      105.0364     
   1168000   289.82527      375.27719      18528.583      19318.539      58.475527    
   1169000   278.71447      370.70768      18539.71       19309.199     -165.73225    
   1170000   303.73426      359.85183      18510.681      19305.113     -330.36688    
Loop time of 3.30689 on 48 procs for 10000 steps with 481 atoms

Performance: 13.064 ns/day, 1.837 hours/ns, 3023.986 timesteps/s, 1.455 Matom-step/s
100.0% CPU use with 48 MPI tasks x 1 OpenMP threads

MPI task timing breakdown:
Section |  min time  |  avg time  |  max time  |%varavg| %total
---------------------------------------------------------------
Pair    | 0.0034585  | 0.1449     | 0.93933    |  61.5 |  4.38
Bond    | 0.0010137  | 0.18395    | 0.93449    |  66.9 |  5.56
Neigh   | 0.0058993  | 0.0064601  | 0.0069369  |   0.4 |  0.20
Comm    | 1.2662     | 2.389      | 2.9921     |  41.7 | 72.24
Output  | 0.0016806  | 0.0026438  | 0.0037128  |   1.2 |  0.08
Modify  | 0.12839    | 0.46187    | 1.8438     |  86.8 | 13.97
Other   |            | 0.1181     |            |       |  3.57

Nlocal:        10.0208 ave          44 max           0 min
Histogram: 22 9 9 0 0 0 0 3 2 3
Nghost:        1818.35 ave        2348 max        1180 min
Histogram: 8 0 0 0 24 0 0 0 0 16
Neighs:              0 ave           0 max           0 min
Histogram: 48 0 0 0 0 0 0 0 0 0

Total # of neighbors = 0
Ave neighs/atom = 0
Ave special neighs/atom = 15.567568
Neighbor list builds = 17
Dangerous builds = 0
fix             myat1 all ave/time 1000 10 10000 v_zave v_zdes file simulation_data/abpot/${cpt}.dat
fix             myat1 all ave/time 1000 10 10000 v_zave v_zdes file simulation_data/abpot/20.dat
run             50000
Generated 0 of 1 mixed pair_coeff terms from geometric mixing rule
Per MPI rank memory allocation (min/avg/max) = 13.32 | 13.79 | 14.98 Mbytes
   Step          Temp          E_pair         E_mol          TotEng         Press     
   1170000   303.73426      359.85183      18510.681      19305.113     -330.36688    
   1171000   289.72727      371.19376      18521.418      19307.151     -91.196526    
   1172000   304.27038      382.60757      18500.437      19318.391      328.08423    
   1173000   322.74307      372.66627      18501.97       19336.413      26.013387    
   1174000   305.69027      365.49594      18544.06       19346.934     -145.86364    
   1175000   316.72817      362.18279      18536.379      19351.733     -236.47849    
   1176000   310.43661      384.11486      18525.325      19353.609      293.26046    
   1177000   305.81686      387.758        18524.474      19349.791      233.65391    
   1178000   312.35199      363.73775      18513.274      19323.921     -216.72771    
   1179000   293.81141      364.20781      18510.233      19294.823     -239.40924    
   1180000   280.55797      372.68819      18517.64       19291.747      135.05948    
   1181000   293.23641      383.47627      18490.02       19293.056      330.13169    
   1182000   276.7045       371.87397      18537.064      19304.843     -5.8033669    
   1183000   295.18818      362.12101      18541.453      19325.926     -325.8889     
   1184000   290.33802      367.64654      18557.463      19340.522     -59.067301    
   1185000   289.49905      382.02916      18548.507      19344.748      343.15852    
   1186000   301.37353      374.26479      18537.393      19342.86       73.75003     
   1187000   306.12949      362.30878      18538.306      19338.621     -279.92335    
   1188000   300.66641      366.85728      18541.784      19338.832     -65.024488    
   1189000   305.82855      375.87727      18517.219      19330.673      167.71102    
   1190000   303.02136      373.3257       18502.077      19308.962      86.352154    
   1191000   279.47706      370.82638      18519.953      19290.652      40.205613    
   1192000   283.333        369.28546      18511.057      19285.732     -194.51       
   1193000   280.41399      372.60399      18515.899      19289.717      41.470466    
   1194000   287.55654      379.92736      18510.149      19301.509      256.71028    
   1195000   299.07395      372.8163       18521.409      19322.137      17.585009    
   1196000   307.05691      363.06599      18530.117      19332.517     -255.66332    
   1197000   305.31277      377.99766      18521.033      19335.868      217.955      
   1198000   302.84804      372.86208      18528.957      19335.131     -133.68308    
   1199000   296.82825      375.13442      18532.529      19332.362     -20.976628    
   1200000   313.89514      373.0237       18513.181      19335.323      92.233487    
   1201000   304.89156      362.93799      18535.175      19334.349     -346.69093    
   1202000   296.65529      377.20207      18528.841      19330.494      77.896503    
   1203000   302.70665      376.19024      18515.566      19324.865      148.35884    
   1204000   290.28284      371.25833      18526.256      19312.847     -60.357055    
   1205000   306.62869      372.34126      18493.531      19304.593     -10.842396    
   1206000   283.18426      368.77022      18526.5        19300.447     -172.97636    
   1207000   286.85838      376.08082      18518.859      19305.373      50.355617    
   1208000   294.09707      380.43033      18521.842      19323.063      218.73164    
   1209000   315.37349      368.25162      18519.196      19338.681     -67.921365    
   1210000   311.17336      373.39343      18531.083      19349.7       -13.203576    
   1211000   298.29837      375.21133      18552.914      19354.927     -18.598455    
   1212000   303.76099      383.70217      18537.403      19355.723      284.40337    
   1213000   300.22644      374.23122      18541.697      19345.488      22.51385     
   1214000   287.86839      361.86693      18558.524      19332.27      -297.099      
   1215000   294.18263      370.08748      18534.161      19325.162      49.835354    
   1216000   290.37469      374.45054      18528.218      19318.134      62.062369    
   1217000   303.20922      376.57777      18503.852      19314.258      110.19874    
   1218000   305.71913      371.53462      18507.033      19315.988      23.475758    
   1219000   292.95185      367.75984      18533.235      19320.147     -109.2275     
   1220000   288.16395      371.83397      18543.125      19327.26      -12.750113    
Loop time of 16.4861 on 48 procs for 50000 steps with 481 atoms

Performance: 13.102 ns/day, 1.832 hours/ns, 3032.862 timesteps/s, 1.459 Matom-step/s
100.0% CPU use with 48 MPI tasks x 1 OpenMP threads

MPI task timing breakdown:
Section |  min time  |  avg time  |  max time  |%varavg| %total
---------------------------------------------------------------
Pair    | 0.017597   | 0.72473    | 4.6162     | 138.4 |  4.40
Bond    | 0.005023   | 0.91896    | 4.7407     | 149.5 |  5.57
Neigh   | 0.023924   | 0.026215   | 0.028072   |   0.7 |  0.16
Comm    | 5.8608     | 11.978     | 14.933     |  93.6 | 72.65
Output  | 0.0081955  | 0.013091   | 0.018009   |   2.7 |  0.08
Modify  | 0.63547    | 2.2392     | 9.2253     | 195.5 | 13.58
Other   |            | 0.5862     |            |       |  3.56

Nlocal:        10.0208 ave          49 max           0 min
Histogram: 24 6 9 1 0 2 1 2 1 2
Nghost:        1818.35 ave        2347 max        1174 min
Histogram: 8 0 0 0 24 0 0 0 0 16
Neighs:              0 ave           0 max           0 min
Histogram: 48 0 0 0 0 0 0 0 0 0

Total # of neighbors = 0
Ave neighs/atom = 0
Ave special neighs/atom = 15.567568
Neighbor list builds = 68
Dangerous builds = 0
unfix           myat1
next            cpt
jump            SELF loop
variable        zdes equal  -15+0.30*(${cpt}-1)
variable        zdes equal  -15+0.30*(21-1)
variable        zave equal xcm(H2,z)
fix             mytth2 H2 spring tether ${k1} 2.5 2.5 ${zdes} 0
fix             mytth2 H2 spring tether 0.5 2.5 2.5 ${zdes} 0
fix             mytth2 H2 spring tether 0.5 2.5 2.5 -9 0
run             10000
Generated 0 of 1 mixed pair_coeff terms from geometric mixing rule
Per MPI rank memory allocation (min/avg/max) = 13.32 | 13.79 | 14.98 Mbytes
   Step          Temp          E_pair         E_mol          TotEng         Press     
   1220000   288.16395      371.83397      18543.125      19327.26      -12.750113    
   1221000   312.08531      379.56317      18507.545      19333.637      165.60623    
   1222000   309.12926      370.64074      18524.058      19336.998      16.356054    
   1223000   308.35782      367.30374      18539.082      19347.58       4.6255445    
   1224000   304.88543      364.10755      18552.794      19353.128     -248.7473     
   1225000   302.29467      371.98488      18550.364      19354.869     -64.13004     
   1226000   303.17859      378.5445       18541.418      19353.747      5.4666192    
   1227000   301.10735      375.02629      18537.535      19343.382      32.51069     
   1228000   300.48823      370.96362      18524.806      19325.705     -13.788643    
   1229000   301.67316      363.22821      18516.713      19311.571     -144.71076    
   1230000   292.00921      372.61229      18510.783      19301.199      69.844614    
Loop time of 3.2411 on 48 procs for 10000 steps with 481 atoms

Performance: 13.329 ns/day, 1.801 hours/ns, 3085.370 timesteps/s, 1.484 Matom-step/s
100.0% CPU use with 48 MPI tasks x 1 OpenMP threads

MPI task timing breakdown:
Section |  min time  |  avg time  |  max time  |%varavg| %total
---------------------------------------------------------------
Pair    | 0.0035572  | 0.14557    | 0.85386    |  61.6 |  4.49
Bond    | 0.0010045  | 0.18404    | 0.93617    |  66.9 |  5.68
Neigh   | 0.0056767  | 0.0062087  | 0.0066128  |   0.3 |  0.19
Comm    | 1.1379     | 2.3549     | 2.9435     |  41.3 | 72.66
Output  | 0.0016355  | 0.0026175  | 0.0036174  |   1.2 |  0.08
Modify  | 0.12395    | 0.4304     | 1.7733     |  85.3 | 13.28
Other   |            | 0.1174     |            |       |  3.62

Nlocal:        10.0208 ave          56 max           0 min
Histogram: 28 6 6 0 1 3 0 2 1 1
Nghost:        1818.35 ave        2347 max        1167 min
Histogram: 8 0 0 0 24 0 0 0 0 16
Neighs:              0 ave           0 max           0 min
Histogram: 48 0 0 0 0 0 0 0 0 0

Total # of neighbors = 0
Ave neighs/atom = 0
Ave special neighs/atom = 15.567568
Neighbor list builds = 16
Dangerous builds = 0
fix             myat1 all ave/time 1000 10 10000 v_zave v_zdes file simulation_data/abpot/${cpt}.dat
fix             myat1 all ave/time 1000 10 10000 v_zave v_zdes file simulation_data/abpot/21.dat
run             50000
Generated 0 of 1 mixed pair_coeff terms from geometric mixing rule
Per MPI rank memory allocation (min/avg/max) = 13.32 | 13.79 | 14.98 Mbytes
   Step          Temp          E_pair         E_mol          TotEng         Press     
   1230000   292.00921      372.61229      18510.783      19301.199      69.844614    
   1231000   287.1837       380.31162      18509.153      19300.364      59.726663    
   1232000   303.72268      374.34286      18499.606      19308.512      46.754624    
   1233000   308.55145      371.90798      18509.206      19322.586     -105.85992    
   1234000   315.62113      369.45715      18516.821      19337.865     -86.774496    
   1235000   305.92667      376.97775      18533.722      19348.417      86.597846    
   1236000   288.72119      382.49327      18555.43       19351.022      101.7215     
   1237000   299.67781      378.24998      18542.222      19349.248     -6.6873127    
   1238000   313.83026      367.03431      18531.916      19347.975     -67.336561    
   1239000   305.52882      369.61805      18535.136      19341.902     -59.482877    
   1240000   286.6739       372.40163      18551.819      19334.39      -92.277173    
   1241000   304.80182      379.2497       18513.213      19328.57       190.31256    
   1242000   294.74941      370.95869      18526.249      19318.932     -77.621599    
   1243000   278.55902      371.0787       18542.342      19311.98      -236.61701    
   1244000   289.75254      378.78848      18519.773      19313.136      190.74087    
   1245000   295.27904      372.58936      18519.33       19314.402     -94.178882    
   1246000   289.93224      372.31618      18534.058      19321.206     -125.56819    
   1247000   298.19558      370.24606      18538.003      19334.904     -65.357168    
   1248000   315.18514      377.90579      18518.73       19347.6        114.1535     
   1249000   321.09217      371.46637      18528.804      19359.686      79.505249    
   1250000   321.22623      371.65589      18534.379      19365.641     -54.25557     
   1251000   315.7208       370.38119      18537.415      19359.526     -134.77774    
   1252000   310.77279      368.94992      18529.133      19342.733     -144.4366     
   1253000   305.13837      376.46029      18510.179      19323.228      72.258293    
   1254000   307.8648       373.63675      18502.212      19316.339     -57.25487     
   1255000   294.6797       363.04138      18530.779      19315.444     -271.43923    
   1256000   306.85858      369.35855      18510.205      19318.613     -130.31848    
   1257000   308.04965      375.57772      18508.421      19324.752      28.819068    
   1258000   300.31903      381.91215      18519.543      19331.148      200.90172    
   1259000   311.3418       369.36649      18524.136      19338.967     -99.481724    
   1260000   310.39603      364.64462      18538.609      19347.365     -214.11268    
   1261000   308.56847      375.00428      18541.536      19358.037      66.469005    
   1262000   309.15309      380.94812      18546.165      19369.446      130.50604    
   1263000   325.29925      373.70186      18536.808      19375.945     -15.18016     
   1264000   329.75332      366.98876      18536.413      19375.209     -178.42957    
   1265000   309.14465      368.96265      18544.222      19355.506     -92.056352    
   1266000   304.50243      382.25691      18516.945      19334.881      274.63253    
   1267000   290.48069      377.2092       18529.355      19322.181      77.324229    
   1268000   300.16371      366.63933      18516.527      19312.637     -164.14127    
   1269000   288.40575      369.01445      18529.44       19311.102     -127.1693     
   1270000   301.47554      374.39168      18506.338      19312.077      74.540363    
   1271000   289.75213      374.83761      18525.777      19315.189     -16.558566    
   1272000   296.03264      374.43982      18526.91       19324.91      -42.359735    
   1273000   298.30527      371.5986       18538.446      19336.856     -90.062525    
   1274000   307.47123      368.57901      18547.087      19355.593     -176.78937    
   1275000   310.78055      382.01949      18541.901      19368.582      218.01962    
   1276000   296.34081      371.67514      18575.85       19371.526     -77.400983    
   1277000   320.09237      372.64357      18527.688      19358.316     -127.5506     
   1278000   295.82342      366.17431      18541.139      19330.575     -108.01964    
   1279000   289.7524       378.6063       18519.972      19313.153      147.08551    
   1280000   285.77719      375.94668      18525.536      19310.37       99.674027    
Loop time of 16.3194 on 48 procs for 50000 steps with 481 atoms

Performance: 13.236 ns/day, 1.813 hours/ns, 3063.845 timesteps/s, 1.474 Matom-step/s
100.0% CPU use with 48 MPI tasks x 1 OpenMP threads

MPI task timing breakdown:
Section |  min time  |  avg time  |  max time  |%varavg| %total
---------------------------------------------------------------
Pair    | 0.017427   | 0.72582    | 4.5074     | 138.2 |  4.45
Bond    | 0.0050286  | 0.91944    | 4.7312     | 149.7 |  5.63
Neigh   | 0.038861   | 0.042507   | 0.04553    |   0.9 |  0.26
Comm    | 5.886      | 11.825     | 14.77      |  92.2 | 72.46
Output  | 0.0082141  | 0.013166   | 0.018091   |   2.7 |  0.08
Modify  | 0.63272    | 2.2057     | 8.9937     | 190.4 | 13.52
Other   |            | 0.5874     |            |       |  3.60

Nlocal:        10.0208 ave          49 max           0 min
Histogram: 23 11 6 0 0 1 3 0 1 3
Nghost:        1818.35 ave        2347 max        1174 min
Histogram: 8 0 0 0 24 0 0 0 0 16
Neighs:              0 ave           0 max           0 min
Histogram: 48 0 0 0 0 0 0 0 0 0

Total # of neighbors = 0
Ave neighs/atom = 0
Ave special neighs/atom = 15.567568
Neighbor list builds = 112
Dangerous builds = 0
unfix           myat1
next            cpt
jump            SELF loop
variable        zdes equal  -15+0.30*(${cpt}-1)
variable        zdes equal  -15+0.30*(22-1)
variable        zave equal xcm(H2,z)
fix             mytth2 H2 spring tether ${k1} 2.5 2.5 ${zdes} 0
fix             mytth2 H2 spring tether 0.5 2.5 2.5 ${zdes} 0
fix             mytth2 H2 spring tether 0.5 2.5 2.5 -8.7 0
run             10000
Generated 0 of 1 mixed pair_coeff terms from geometric mixing rule
Per MPI rank memory allocation (min/avg/max) = 13.32 | 13.79 | 14.98 Mbytes
   Step          Temp          E_pair         E_mol          TotEng         Press     
   1280000   285.77719      375.94668      18525.536      19310.37       99.674027    
   1281000   307.17518      369.40102      18505.923      19314.826      2.4642859    
   1282000   290.56689      363.75904      18537.696      19317.195     -147.40947    
   1283000   302.4129       371.04277      18519.874      19323.606     -124.77381    
   1284000   308.16395      378.86091      18509.966      19329.745      114.54288    
   1285000   296.56231      373.06918      18539.322      19336.709      28.487883    
   1286000   310.18131      365.9245       18540.382      19350.11      -220.99972    
   1287000   322.61117      371.58264      18529.268      19362.439      4.71737      
   1288000   322.92054      375.84796      18526.19       19364.07       25.996378    
   1289000   318.41915      372.2087       18525.938      19353.738     -128.98811    
   1290000   303.0903       376.71785      18521.128      19331.504      122.54474    
Loop time of 3.30054 on 48 procs for 10000 steps with 481 atoms

Performance: 13.089 ns/day, 1.834 hours/ns, 3029.803 timesteps/s, 1.457 Matom-step/s
100.0% CPU use with 48 MPI tasks x 1 OpenMP threads

MPI task timing breakdown:
Section |  min time  |  avg time  |  max time  |%varavg| %total
---------------------------------------------------------------
Pair    | 0.0035197  | 0.14493    | 0.96725    |  62.3 |  4.39
Bond    | 0.0010007  | 0.18375    | 0.98734    |  67.4 |  5.57
Neigh   | 0.0069669  | 0.007652   | 0.0082102  |   0.4 |  0.23
Comm    | 1.1852     | 2.3939     | 2.9926     |  41.7 | 72.53
Output  | 0.001638   | 0.002624   | 0.003619   |   1.2 |  0.08
Modify  | 0.12601    | 0.45013    | 1.8438     |  86.6 | 13.64
Other   |            | 0.1176     |            |       |  3.56

Nlocal:        10.0208 ave          49 max           0 min
Histogram: 22 11 7 0 0 1 1 2 2 2
Nghost:        1818.35 ave        2346 max        1178 min
Histogram: 8 0 0 0 24 0 0 0 0 16
Neighs:              0 ave           0 max           0 min
Histogram: 48 0 0 0 0 0 0 0 0 0

Total # of neighbors = 0
Ave neighs/atom = 0
Ave special neighs/atom = 15.567568
Neighbor list builds = 20
Dangerous builds = 0
fix             myat1 all ave/time 1000 10 10000 v_zave v_zdes file simulation_data/abpot/${cpt}.dat
fix             myat1 all ave/time 1000 10 10000 v_zave v_zdes file simulation_data/abpot/22.dat
run             50000
Generated 0 of 1 mixed pair_coeff terms from geometric mixing rule
Per MPI rank memory allocation (min/avg/max) = 13.32 | 13.79 | 14.98 Mbytes
   Step          Temp          E_pair         E_mol          TotEng         Press     
   1290000   303.0903       376.71785      18521.128      19331.504      122.54474    
   1291000   285.91591      365.55347      18536.999      19311.638     -320.1214     
   1292000   299.91022      372.16914      18505.361      19306.638     -26.658275    
   1293000   287.64548      375.972        18519.758      19307.29       88.776112    
   1294000   289.79767      370.29258      18528.033      19312.965     -132.3893     
   1295000   293.01494      372.33567      18529.696      19321.274     -30.766692    
   1296000   295.19657      372.63321      18539.144      19334.141     -200.62168    
   1297000   299.48556      371.36604      18550.189      19350.056     -42.652927    
   1298000   310.69587      373.32721      18540.413      19358.281      77.879546    
   1299000   314.85225      369.07827      18537.746      19357.311     -104.63001    
   1300000   313.50788      378.43745      18530.224      19357.225      136.44063    
   1301000   288.53909      372.61656      18567.561      19353.016     -55.943743    
   1302000   302.20501      373.84384      18541.319      19347.555      12.823351    
   1303000   310.62829      372.97246      18521.106      19338.522      29.729397    
   1304000   294.19397      369.40584      18539.007      19329.343     -78.790465    
   1305000   302.21973      372.37252      18519.872      19324.657      45.313426    
   1306000   302.80248      372.74895      18516.211      19322.207      116.94121    
   1307000   296.34466      369.52728      18524.66       19318.194      17.051424    
   1308000   299.25675      364.72461      18523.082      19315.98      -183.64593    
   1309000   282.63772      370.87197      18545.77       19321.037     -53.496441    
   1310000   289.84291      375.14653      18538.028      19327.878      17.067341    
   1311000   304.17496      374.02864      18532.1        19341.339      9.5452012    
   1312000   318.58152      361.64522      18535.792      19353.26      -243.93062    
   1313000   311.77587      368.6555       18544.54       19359.281     -168.8755     
   1314000   314.83712      375.10015      18536.773      19362.339      12.199169    
   1315000   298.84453      375.1865       18557.765      19360.535      150.78257    
   1316000   294.52666      371.16943      18551.276      19343.851     -53.242156    
   1317000   291.36989      359.80161      18544.816      19321.507     -337.58371    
   1318000   286.24404      373.18978      18523.723      19306.468      35.807115    
   1319000   280.54599      379.97751      18522.316      19303.695      67.734824    
   1320000   297.10815      376.7719       18507.139      19309.01       200.20519    
   1321000   274.91462      363.70813      18556.932      19313.985     -224.90103    
   1322000   302.25044      365.19679      18525.983      19323.636     -130.99825    
   1323000   295.78646      371.87431      18538.461      19333.544      84.70084     
   1324000   308.32887      381.46513      18516.002      19338.62       289.81485    
   1325000   316.07107      369.18875      18521.792      19343.211     -86.125432    
   1326000   296.62103      362.90852      18557.485      19344.796     -204.28741    
   1327000   297.16292      377.96304      18537.237      19340.378      37.844385    
   1328000   305.83837      375.72133      18520.512      19333.824      37.185156    
   1329000   297.00794      377.19909      18530.254      19332.409      127.0729     
   1330000   307.11773      363.41721      18530.483      19333.321     -127.2379     
   1331000   301.32169      368.20736      18535.607      19334.942     -175.76617    
   1332000   301.65286      380.31912      18519.455      19331.376      189.24817    
   1333000   312.21137      370.80502      18502.328      19319.842      4.6190809    
   1334000   292.06771      367.6517       18522.347      19307.886     -182.64435    
   1335000   285.47685      369.07194      18521.298      19298.827     -55.016124    
   1336000   287.12318      375.1558       18508.53       19294.499      134.26003    
   1337000   283.20793      372.4061       18516.926      19294.543      0.98746613   
   1338000   295.76882      367.98341      18508.04       19299.206     -93.058418    
   1339000   288.91661      375.53595      18526.079      19314.994     -71.753114    
   1340000   313.0227       372.59269      18512.716      19333.178     -19.902498    
Loop time of 16.7608 on 48 procs for 50000 steps with 481 atoms

Performance: 12.887 ns/day, 1.862 hours/ns, 2983.149 timesteps/s, 1.435 Matom-step/s
100.0% CPU use with 48 MPI tasks x 1 OpenMP threads

MPI task timing breakdown:
Section |  min time  |  avg time  |  max time  |%varavg| %total
---------------------------------------------------------------
Pair    | 0.017468   | 0.72574    | 4.8097     | 139.7 |  4.33
Bond    | 0.0050173  | 0.91903    | 4.6937     | 149.9 |  5.48
Neigh   | 0.041833   | 0.045765   | 0.048968   |   0.9 |  0.27
Comm    | 6.2403     | 12.185     | 15.204     |  93.9 | 72.70
Output  | 0.0082697  | 0.013275   | 0.018253   |   2.7 |  0.08
Modify  | 0.64007    | 2.2869     | 9.4314     | 197.0 | 13.64
Other   |            | 0.5854     |            |       |  3.49

Nlocal:        10.0208 ave          49 max           0 min
Histogram: 22 12 6 0 0 2 0 3 0 3
Nghost:        1818.35 ave        2348 max        1174 min
Histogram: 8 0 0 0 24 0 0 0 0 16
Neighs:              0 ave           0 max           0 min
Histogram: 48 0 0 0 0 0 0 0 0 0

Total # of neighbors = 0
Ave neighs/atom = 0
Ave special neighs/atom = 15.567568
Neighbor list builds = 118
Dangerous builds = 0
unfix           myat1
next            cpt
jump            SELF loop
variable        zdes equal  -15+0.30*(${cpt}-1)
variable        zdes equal  -15+0.30*(23-1)
variable        zave equal xcm(H2,z)
fix             mytth2 H2 spring tether ${k1} 2.5 2.5 ${zdes} 0
fix             mytth2 H2 spring tether 0.5 2.5 2.5 ${zdes} 0
fix             mytth2 H2 spring tether 0.5 2.5 2.5 -8.4 0
run             10000
Generated 0 of 1 mixed pair_coeff terms from geometric mixing rule
Per MPI rank memory allocation (min/avg/max) = 13.32 | 13.79 | 14.98 Mbytes
   Step          Temp          E_pair         E_mol          TotEng         Press     
   1340000   313.0227       372.59269      18512.716      19333.178     -19.902498    
   1341000   315.84386      371.40082      18520.8        19344.107     -27.737074    
   1342000   308.35234      374.09264      18536.27       19351.55       2.1433526    
   1343000   309.2296       363.88952      18547.242      19353.574     -162.14766    
   1344000   305.76145      378.51122      18525.695      19341.687      60.384284    
   1345000   295.01044      373.50182      18529.773      19325.373     -23.033508    
   1346000   303.88709      369.49968      18509.418      19313.716     -31.732934    
   1347000   284.78497      369.00016      18528.705      19305.172     -189.16314    
   1348000   276.46054      367.99011      18540.518      19304.065     -98.290867    
   1349000   291.06706      377.99686      18515.104      19309.556      76.845053    
   1350000   303.32383      377.28509      18514.697      19325.975      126.78079    
Loop time of 3.40982 on 48 procs for 10000 steps with 481 atoms

Performance: 12.669 ns/day, 1.894 hours/ns, 2932.709 timesteps/s, 1.411 Matom-step/s
100.0% CPU use with 48 MPI tasks x 1 OpenMP threads

MPI task timing breakdown:
Section |  min time  |  avg time  |  max time  |%varavg| %total
---------------------------------------------------------------
Pair    | 0.0034331  | 0.14488    | 0.91894    |  62.5 |  4.25
Bond    | 0.0010016  | 0.18397    | 1.0046     |  67.5 |  5.40
Neigh   | 0.0093346  | 0.010243   | 0.010991   |   0.5 |  0.30
Comm    | 1.182      | 2.4918     | 3.1002     |  43.0 | 73.08
Output  | 0.0017426  | 0.0027219  | 0.0037029  |   1.2 |  0.08
Modify  | 0.12647    | 0.45895    | 1.9525     |  91.6 | 13.46
Other   |            | 0.1173     |            |       |  3.44

Nlocal:        10.0208 ave          53 max           0 min
Histogram: 26 7 7 0 0 2 1 4 0 1
Nghost:        1818.35 ave        2347 max        1170 min
Histogram: 8 0 0 0 24 0 0 0 0 16
Neighs:              0 ave           0 max           0 min
Histogram: 48 0 0 0 0 0 0 0 0 0

Total # of neighbors = 0
Ave neighs/atom = 0
Ave special neighs/atom = 15.567568
Neighbor list builds = 27
Dangerous builds = 0
fix             myat1 all ave/time 1000 10 10000 v_zave v_zdes file simulation_data/abpot/${cpt}.dat
fix             myat1 all ave/time 1000 10 10000 v_zave v_zdes file simulation_data/abpot/23.dat
run             50000
Generated 0 of 1 mixed pair_coeff terms from geometric mixing rule
Per MPI rank memory allocation (min/avg/max) = 13.32 | 13.79 | 14.98 Mbytes
   Step          Temp          E_pair         E_mol          TotEng         Press     
   1350000   303.32383      377.28509      18514.697      19325.975      126.78079    
   1351000   309.87186      366.28812      18554.425      19364.074     -277.08489    
   1352000   312.01109      372.30234      18553.791      19372.515     -89.501054    
   1353000   304.8799       379.44953      18553.815      19369.483      147.36788    
   1354000   305.11154      373.23827      18547.074      19356.862     -69.277486    
   1355000   302.8875       371.90333      18534.622      19339.894     -98.70478     
   1356000   290.36299      366.66263      18544.101      19326.212     -101.43754    
   1357000   300.00065      372.02129      18512.008      19313.267     -108.50699    
   1358000   280.231        375.77326      18528.737      19305.462      63.723495    
   1359000   306.39865      376.27332      18493.696      19308.361      108.95063    
   1360000   308.99018      367.02855      18508.227      19317.355     -202.77104    
   1361000   311.0263       371.76797      18513.529      19330.31       4.9153136    
   1362000   289.62312      371.34294      18556.752      19342.485     -80.98565     
   1363000   311.57973      380.2015       18531.814      19357.821      91.096273    
   1364000   300.04085      376.25968      18559.761      19365.316     -37.513702    
   1365000   310.7221       367.30323      18552.683      19364.563     -108.43538    
   1366000   310.06638      363.78167      18541.782      19349.203     -118.71877    
   1367000   288.56719      377.89071      18529.247      19320.016      50.748071    
   1368000   303.65286      367.83172      18505.447      19307.742     -75.688565    
   1369000   292.0665       367.74601      18522.587      19308.218     -73.804363    
   1370000   286.59762      365.56134      18535.468      19311.09      -225.8366     
   1371000   287.06409      370.67866      18536.989      19318.396     -57.763667    
   1372000   297.93663      379.02525      18524.314      19329.623      154.1609     
   1373000   301.37598      369.69241      18536.973      19337.871     -105.43139    
   1374000   321.77893      370.11394      18513.905      19344.416     -41.254547    
   1375000   290.76577      378.34501      18555.843      19350.212      72.277609    
   1376000   309.24595      373.44899      18537.547      19353.462     -73.81756     
   1377000   298.65007      375.90388      18547.079      19350.288      20.355921    
   1378000   293.09691      375.35807      18544.542      19339.26       74.362899    
   1379000   297.12748      367.87437      18528.267      19321.268     -85.677915    
   1380000   306.58419      376.76697      18492.172      19307.596      171.79838    
   1381000   294.01333      373.40981      18506.457      19300.537      44.239204    
   1382000   295.59614      368.26699      18507.882      19299.084     -31.726802    
   1383000   285.65353      370.33132      18527.633      19306.674     -121.12354    
   1384000   297.38909      377.35621      18521.399      19324.256      80.188447    
   1385000   302.6782       375.74764      18534.958      19343.774     -25.679763    
   1386000   294.32436      372.45555      18552.839      19346.41      -63.057729    
   1387000   303.80584      365.58108      18543.69       19343.954     -77.769195    
   1388000   300.51114      379.32412      18528.794      19338.086     -6.4151002    
   1389000   305.9318       373.13206      18520.773      19331.629     -18.875763    
   1390000   298.66477      371.30036      18527.122      19325.749     -159.71452    
   1391000   302.01555      374.6009       18510.124      19316.845      15.971439    
   1392000   297.14856      370.04696      18509.46       19304.664     -63.489313    
   1393000   270.66575      376.11985      18525.65       19289.035      44.15195     
   1394000   286.19157      370.44855      18496.058      19275.986     -87.157444    
   1395000   284.48837      378.53655      18476.798      19262.377      160.03319    
   1396000   279.47224      371.88232      18488.14       19259.888     -90.580746    
   1397000   280.68325      371.29677      18499.727      19272.622     -30.569088    
   1398000   283.29104      372.7002       18520.064      19298.093      44.739744    
   1399000   298.23226      367.73377      18521.67       19316.112     -139.43411    
   1400000   301.69011      378.88184      18515.01       19325.547      122.51881    
Loop time of 16.3982 on 48 procs for 50000 steps with 481 atoms

Performance: 13.172 ns/day, 1.822 hours/ns, 3049.117 timesteps/s, 1.467 Matom-step/s
100.0% CPU use with 48 MPI tasks x 1 OpenMP threads

MPI task timing breakdown:
Section |  min time  |  avg time  |  max time  |%varavg| %total
---------------------------------------------------------------
Pair    | 0.017299   | 0.72687    | 4.3467     | 136.5 |  4.43
Bond    | 0.0050245  | 0.92062    | 4.7421     | 149.6 |  5.61
Neigh   | 0.030674   | 0.033614   | 0.035969   |   0.8 |  0.20
Comm    | 5.881      | 11.867     | 14.864     |  91.7 | 72.37
Output  | 0.0080838  | 0.013122   | 0.018173   |   2.8 |  0.08
Modify  | 0.63851    | 2.25       | 9.0601     | 190.2 | 13.72
Other   |            | 0.5872     |            |       |  3.58

Nlocal:        10.0208 ave          54 max           0 min
Histogram: 25 10 4 1 1 2 1 0 3 1
Nghost:        1818.35 ave        2347 max        1169 min
Histogram: 8 0 0 0 24 0 0 0 0 16
Neighs:              0 ave           0 max           0 min
Histogram: 48 0 0 0 0 0 0 0 0 0

Total # of neighbors = 0
Ave neighs/atom = 0
Ave special neighs/atom = 15.567568
Neighbor list builds = 90
Dangerous builds = 0
unfix           myat1
next            cpt
jump            SELF loop
variable        zdes equal  -15+0.30*(${cpt}-1)
variable        zdes equal  -15+0.30*(24-1)
variable        zave equal xcm(H2,z)
fix             mytth2 H2 spring tether ${k1} 2.5 2.5 ${zdes} 0
fix             mytth2 H2 spring tether 0.5 2.5 2.5 ${zdes} 0
fix             mytth2 H2 spring tether 0.5 2.5 2.5 -8.1 0
run             10000
Generated 0 of 1 mixed pair_coeff terms from geometric mixing rule
Per MPI rank memory allocation (min/avg/max) = 13.32 | 13.79 | 14.98 Mbytes
   Step          Temp          E_pair         E_mol          TotEng         Press     
   1400000   301.69011      378.88184      18515.01       19325.547      122.51881    
   1401000   300.43825      383.0308       18520.244      19333.138      350.49569    
   1402000   307.00188      368.09922      18527.378      19334.732     -147.39023    
   1403000   304.89354      375.43153      18522.341      19334.011      59.964239    
   1404000   289.55013      373.70763      18543.814      19331.807     -161.72042    
   1405000   312.08823      383.15242      18493.715      19323.399      431.69422    
   1406000   286.9204       377.3718       18520.008      19307.902      10.397754    
   1407000   298.1389       357.3281       18508.768      19292.67      -284.00805    
   1408000   294.54367      369.20834      18494.346      19284.984     -1.3627828    
   1409000   277.88186      380.82264      18506.854      19285.267      213.67347    
   1410000   278.878        375.04408      18527.896      19301.956      16.729696    
Loop time of 3.33111 on 48 procs for 10000 steps with 481 atoms

Performance: 12.969 ns/day, 1.851 hours/ns, 3002.002 timesteps/s, 1.444 Matom-step/s
100.0% CPU use with 48 MPI tasks x 1 OpenMP threads

MPI task timing breakdown:
Section |  min time  |  avg time  |  max time  |%varavg| %total
---------------------------------------------------------------
Pair    | 0.0034428  | 0.14529    | 0.91429    |  61.7 |  4.36
Bond    | 0.0010016  | 0.18392    | 0.93911    |  66.8 |  5.52
Neigh   | 0.0027861  | 0.0030584  | 0.0032754  |   0.2 |  0.09
Comm    | 1.233      | 2.4304     | 3.0336     |  41.7 | 72.96
Output  | 0.0016453  | 0.0026157  | 0.0036326  |   1.2 |  0.08
Modify  | 0.1284     | 0.44838    | 1.8735     |  88.1 | 13.46
Other   |            | 0.1175     |            |       |  3.53

Nlocal:        10.0208 ave          44 max           0 min
Histogram: 23 7 10 0 0 0 0 3 1 4
Nghost:        1818.35 ave        2347 max        1179 min
Histogram: 8 0 0 0 24 0 0 0 0 16
Neighs:              0 ave           0 max           0 min
Histogram: 48 0 0 0 0 0 0 0 0 0

Total # of neighbors = 0
Ave neighs/atom = 0
Ave special neighs/atom = 15.567568
Neighbor list builds = 8
Dangerous builds = 0
fix             myat1 all ave/time 1000 10 10000 v_zave v_zdes file simulation_data/abpot/${cpt}.dat
fix             myat1 all ave/time 1000 10 10000 v_zave v_zdes file simulation_data/abpot/24.dat
run             50000
Generated 0 of 1 mixed pair_coeff terms from geometric mixing rule
Per MPI rank memory allocation (min/avg/max) = 13.32 | 13.79 | 14.98 Mbytes
   Step          Temp          E_pair         E_mol          TotEng         Press     
   1410000   278.878        375.04408      18527.896      19301.956      16.729696    
   1411000   308.27136      370.1923       18520.939      19332.203     -77.08664     
   1412000   309.03765      361.47398      18540.279      19343.921     -248.36173    
   1413000   307.44096      368.7394       18533.925      19342.548     -27.685901    
   1414000   319.64478      380.46657      18500.07       19337.881      230.09985    
   1415000   313.19575      372.16204      18513.783      19334.062     -41.076407    
   1416000   305.13783      361.64427      18526.192      19324.424     -318.52261    
   1417000   309.91678      374.16544      18496.577      19314.167      3.7608173    
   1418000   298.47446      372.17626      18502.951      19302.182      21.385355    
   1419000   270.79158      375.2134       18533.953      19296.612      16.748084    
   1420000   278.00353      359.24008      18541.334      19298.338     -325.00781    
   1421000   297.46776      359.93837      18527.154      19312.706     -327.03028    
   1422000   311.2101       379.37914      18514.136      19338.791      141.83065    
   1423000   320.15989      380.75025      18514.266      19353.097      157.98383    
   1424000   305.88628      368.59288      18544.659      19350.911     -119.29969    
   1425000   313.18379      359.8758       18539.351      19347.327     -264.80169    
   1426000   303.45602      368.8883       18536.564      19339.634     -28.208625    
   1427000   290.84019      385.68743      18526.996      19328.814      313.45002    
   1428000   296.83512      372.13543      18518.367      19315.211     -4.8477663    
   1429000   281.54786      365.63555      18536.322      19304.793     -142.32996    
   1430000   290.84574      361.99252      18524.056      19302.188     -264.74127    
   1431000   290.21553      375.2691       18514.508      19305.014      53.076197    
   1432000   294.99377      387.46671      18505.377      19314.917      288.08792    
   1433000   310.59681      371.73083      18529.936      19346.065     -118.34478    
   1434000   318.59852      366.17566      18548.275      19370.298     -180.34286    
   1435000   302.09653      371.33137      18563.327      19366.895     -114.01176    
   1436000   314.87407      376.15527      18532.931      19359.604      76.332987    
   1437000   299.10673      378.75288      18539.352      19346.064      147.90563    
   1438000   297.6168       370.13467      18537.025      19332.986     -64.436672    
   1439000   290.39157      361.29434      18541.483      19318.266     -272.51079    
   1440000   301.12107      373.21837      18504.058      19308.117      99.627954    
   1441000   285.31353      377.05447      18519.282      19304.56       100.3644     
   1442000   296.54603      371.14343      18518.191      19313.629      12.617157    
   1443000   282.80886      359.23034      18563.542      19327.412     -421.26927    
   1444000   301.95992      370.71035      18544.875      19347.626     -2.8247529    
   1445000   302.17164      380.80141      18549.69       19362.835      342.24884    
   1446000   312.72396      373.99095      18545.318      19366.751     -3.7292033    
   1447000   316.98746      364.93828      18544.667      19363.147     -179.90689    
   1448000   311.99185      371.71221      18539.505      19357.612     -60.132822    
   1449000   319.01622      378.33436      18513.879      19348.658      156.42091    
   1450000   302.76358      375.01492      18528.281      19336.487      67.35727     
   1451000   294.6317       363.79836      18540.453      19325.807     -209.4752     
   1452000   298.03784      373.50321      18523.906      19323.839     -56.440589    
   1453000   311.97655      379.95037      18497.806      19324.128      204.37937    
   1454000   304.4447       372.64946      18513.855      19322.1       -87.08135     
   1455000   310.9616       366.58536      18507.37       19318.876     -154.61682    
   1456000   307.35464      376.69051      18496.494      19312.944      43.820641    
   1457000   285.04925      372.76079      18525.683      19306.289     -44.345011    
   1458000   293.10609      371.57665      18519.031      19309.98      -73.102705    
   1459000   296.33388      370.19056      18524.822      19319.004     -4.7432846    
   1460000   310.73475      371.01649      18514.265      19329.877     -51.204155    
Loop time of 16.408 on 48 procs for 50000 steps with 481 atoms

Performance: 13.164 ns/day, 1.823 hours/ns, 3047.300 timesteps/s, 1.466 Matom-step/s
100.0% CPU use with 48 MPI tasks x 1 OpenMP threads

MPI task timing breakdown:
Section |  min time  |  avg time  |  max time  |%varavg| %total
---------------------------------------------------------------
Pair    | 0.017503   | 0.72709    | 4.6312     | 138.0 |  4.43
Bond    | 0.0050325  | 0.92078    | 4.6948     | 149.3 |  5.61
Neigh   | 0.014897   | 0.016376   | 0.017545   |   0.6 |  0.10
Comm    | 5.8667     | 11.902     | 14.901     |  92.6 | 72.54
Output  | 0.0081352  | 0.013197   | 0.018236   |   2.8 |  0.08
Modify  | 0.63686    | 2.2401     | 9.0826     | 192.3 | 13.65
Other   |            | 0.5886     |            |       |  3.59

Nlocal:        10.0208 ave          46 max           0 min
Histogram: 21 14 5 0 0 0 0 3 3 2
Nghost:        1818.35 ave        2348 max        1177 min
Histogram: 8 0 0 0 24 0 0 0 0 16
Neighs:              0 ave           0 max           0 min
Histogram: 48 0 0 0 0 0 0 0 0 0

Total # of neighbors = 0
Ave neighs/atom = 0
Ave special neighs/atom = 15.567568
Neighbor list builds = 43
Dangerous builds = 0
unfix           myat1
next            cpt
jump            SELF loop
variable        zdes equal  -15+0.30*(${cpt}-1)
variable        zdes equal  -15+0.30*(25-1)
variable        zave equal xcm(H2,z)
fix             mytth2 H2 spring tether ${k1} 2.5 2.5 ${zdes} 0
fix             mytth2 H2 spring tether 0.5 2.5 2.5 ${zdes} 0
fix             mytth2 H2 spring tether 0.5 2.5 2.5 -7.8 0
run             10000
Generated 0 of 1 mixed pair_coeff terms from geometric mixing rule
Per MPI rank memory allocation (min/avg/max) = 13.32 | 13.79 | 14.98 Mbytes
   Step          Temp          E_pair         E_mol          TotEng         Press     
   1460000   310.73475      371.01649      18514.265      19329.877     -51.204155    
   1461000   294.7731       375.14521      18543.006      19339.909      45.689521    
   1462000   285.57968      375.34708      18562.659      19346.61      -1.6987772    
   1463000   301.51006      371.01833      18550.239      19352.655     -23.184627    
   1464000   315.05577      375.89627      18533.164      19359.839      23.31052     
   1465000   324.05622      375.57896      18518.2        19357.435      123.70672    
   1466000   309.58148      367.64922      18523.629      19334.224     -46.425282    
   1467000   282.31034      364.99871      18541.122      19310.047     -254.51092    
   1468000   312.64275      372.22601      18480.876      19300.428     -4.3972955    
   1469000   288.56241      377.5224       18507.842      19298.236      95.081808    
   1470000   291.36964      374.84897      18515.853      19307.59       60.172823    
Loop time of 3.38537 on 48 procs for 10000 steps with 481 atoms

Performance: 12.761 ns/day, 1.881 hours/ns, 2953.886 timesteps/s, 1.421 Matom-step/s
100.0% CPU use with 48 MPI tasks x 1 OpenMP threads

MPI task timing breakdown:
Section |  min time  |  avg time  |  max time  |%varavg| %total
---------------------------------------------------------------
Pair    | 0.003539   | 0.14555    | 0.93357    |  62.0 |  4.30
Bond    | 0.0010018  | 0.18433    | 0.98133    |  67.1 |  5.44
Neigh   | 0.003313   | 0.0036054  | 0.0038552  |   0.3 |  0.11
Comm    | 1.2194     | 2.4542     | 3.0889     |  42.3 | 72.49
Output  | 0.0016382  | 0.0025915  | 0.0036453  |   1.2 |  0.08
Modify  | 0.12552    | 0.47762    | 1.9304     |  89.1 | 14.11
Other   |            | 0.1175     |            |       |  3.47

Nlocal:        10.0208 ave          53 max           0 min
Histogram: 25 12 3 0 0 3 0 2 2 1
Nghost:        1818.35 ave        2348 max        1170 min
Histogram: 8 0 0 0 24 0 0 0 0 16
Neighs:              0 ave           0 max           0 min
Histogram: 48 0 0 0 0 0 0 0 0 0

Total # of neighbors = 0
Ave neighs/atom = 0
Ave special neighs/atom = 15.567568
Neighbor list builds = 9
Dangerous builds = 0
fix             myat1 all ave/time 1000 10 10000 v_zave v_zdes file simulation_data/abpot/${cpt}.dat
fix             myat1 all ave/time 1000 10 10000 v_zave v_zdes file simulation_data/abpot/25.dat
run             50000
Generated 0 of 1 mixed pair_coeff terms from geometric mixing rule
Per MPI rank memory allocation (min/avg/max) = 13.32 | 13.79 | 14.98 Mbytes
   Step          Temp          E_pair         E_mol          TotEng         Press     
   1470000   291.36964      374.84897      18515.853      19307.59       60.172823    
   1471000   313.05147      362.497        18510.845      19321.253     -213.98821    
   1472000   307.02562      363.56641      18533.649      19336.504     -227.88048    
   1473000   300.61008      378.35429      18535.29       19343.754      228.80363    
   1474000   290.17776      379.44589      18549.34       19343.969      190.00954    
   1475000   293.37716      371.79329      18554.489      19346.043     -24.247342    
   1476000   295.19335      357.23319      18563.945      19343.537     -406.45399    
   1477000   304.91024      372.3042       18527.503      19336.069      26.530215    
   1478000   305.68652      383.03065      18509.8        19330.204      152.36111    
   1479000   311.66095      374.45822      18512.263      19332.642      83.595005    
   1480000   322.56482      369.31493      18501.406      19332.243     -46.489863    
   1481000   291.05879      357.11936      18553.222      19326.785     -597.42986    
   1482000   284.97209      373.597        18542.455      19323.787      17.655086    
   1483000   291.04465      388.64546      18517.632      19322.7        392.2227     
   1484000   295.01862      370.53732      18529.026      19321.672     -67.88513     
   1485000   286.69882      357.94488      18549.05       19317.2       -383.48177    
   1486000   292.4555       363.99093      18537.346      19319.779     -270.26562    
   1487000   303.57958      386.6063       18508.316      19329.28       403.1915     
   1488000   287.88349      377.35022      18552.009      19341.259      89.526698    
   1489000   293.76573      361.52738      18575.462      19357.306     -263.46369    
   1490000   315.84502      361.93518      18555.49       19369.333     -260.11816    
   1491000   319.05688      377.71127      18533.834      19368.048      164.77733    
   1492000   303.21181      379.79075      18535.795      19349.417      186.89204    
   1493000   284.02808      368.14285      18551.617      19326.144     -169.80105    
   1494000   299.1725       362.66157      18525.808      19316.522     -267.06395    
   1495000   305.18814      373.12105      18505.085      19314.865      27.800659    
   1496000   284.00891      375.2297       18530.685      19312.271      6.0287599    
   1497000   287.0925       365.949        18536.842      19313.56      -114.50687    
   1498000   304.39586      372.55462      18515.248      19323.329     -16.919409    
   1499000   313.54272      365.25162      18512.054      19325.919     -92.182771    
   1500000   308.82091      368.16129      18517.813      19327.832     -156.80355    
   1501000   293.97213      376.808        18552.113      19349.533      83.484302    
   1502000   319.75456      373.59065      18547.172      19378.264     -53.841669    
   1503000   334.92174      366.64789      18542.095      19387.945     -173.01323    
   1504000   311.92222      365.54128      18570.64       19382.476     -150.17601    
   1505000   306.59653      372.53897      18553.407      19364.621      82.76187     
   1506000   296.34444      379.85265      18538.809      19342.668      187.97621    
   1507000   300.30835      370.83941      18531.763      19332.28      -180.12223    
   1508000   313.75317      365.1518       18512.992      19327.058     -137.00571    
   1509000   291.69234      372.79394      18534.535      19324.68       10.242362    
   1510000   292.70093      375.94149      18524.72       19319.454      117.55168    
   1511000   298.868        375.60321      18507.871      19311.091      88.46995     
   1512000   294.89917      366.38345      18518.21       19306.532     -143.47053    
   1513000   273.3746       367.73166      18549.392      19308.264     -85.896497    
   1514000   305.01342      380.95701      18494.668      19312.035      207.04172    
   1515000   309.90333      370.22674      18509.484      19323.117     -65.144136    
   1516000   315.25341      374.30435      18516.007      19341.372      16.304567    
   1517000   301.92728      373.18873      18551.468      19356.651      7.8266468    
   1518000   320.82935      366.85629      18535.632      19361.527     -179.49915    
   1519000   306.8863       374.55149      18541.092      19354.732      58.120092    
   1520000   305.53114      379.10748      18523.539      19339.797      24.912115    
Loop time of 16.301 on 48 procs for 50000 steps with 481 atoms

Performance: 13.251 ns/day, 1.811 hours/ns, 3067.296 timesteps/s, 1.475 Matom-step/s
100.0% CPU use with 48 MPI tasks x 1 OpenMP threads

MPI task timing breakdown:
Section |  min time  |  avg time  |  max time  |%varavg| %total
---------------------------------------------------------------
Pair    | 0.01753    | 0.72747    | 4.5587     | 137.3 |  4.46
Bond    | 0.0050275  | 0.92119    | 4.6328     | 149.1 |  5.65
Neigh   | 0.019919   | 0.021826   | 0.023351   |   0.6 |  0.13
Comm    | 5.8948     | 11.816     | 14.796     |  92.1 | 72.49
Output  | 0.0081438  | 0.0131     | 0.018081   |   2.8 |  0.08
Modify  | 0.62648    | 2.2132     | 8.9507     | 191.2 | 13.58
Other   |            | 0.5882     |            |       |  3.61

Nlocal:        10.0208 ave          55 max           0 min
Histogram: 23 15 2 0 1 2 1 1 2 1
Nghost:        1818.35 ave        2347 max        1168 min
Histogram: 8 0 0 0 24 0 0 0 0 16
Neighs:              0 ave           0 max           0 min
Histogram: 48 0 0 0 0 0 0 0 0 0

Total # of neighbors = 0
Ave neighs/atom = 0
Ave special neighs/atom = 15.567568
Neighbor list builds = 56
Dangerous builds = 0
unfix           myat1
next            cpt
jump            SELF loop
variable        zdes equal  -15+0.30*(${cpt}-1)
variable        zdes equal  -15+0.30*(26-1)
variable        zave equal xcm(H2,z)
fix             mytth2 H2 spring tether ${k1} 2.5 2.5 ${zdes} 0
fix             mytth2 H2 spring tether 0.5 2.5 2.5 ${zdes} 0
fix             mytth2 H2 spring tether 0.5 2.5 2.5 -7.5 0
run             10000
Generated 0 of 1 mixed pair_coeff terms from geometric mixing rule
Per MPI rank memory allocation (min/avg/max) = 13.32 | 13.79 | 14.98 Mbytes
   Step          Temp          E_pair         E_mol          TotEng         Press     
   1520000   305.53114      379.10748      18523.539      19339.797      24.912115    
   1521000   296.8139       364.51871      18532.955      19322.152     -291.27888    
   1522000   288.33627      374.99842      18518.541      19306.088      72.274099    
   1523000   294.26244      371.99145      18512.8        19305.819     -39.126455    
   1524000   299.08263      371.17104      18512.539      19311.634     -85.976389    
   1525000   282.23182      371.27998      18541.35       19316.444      1.4392977    
   1526000   299.56311      368.32152      18524.448      19321.381     -132.92031    
   1527000   299.62493      372.60344      18527.935      19329.238      88.428655    
   1528000   312.39691      375.00949      18520.366      19342.35       49.625572    
   1529000   307.07572      367.23176      18541.128      19347.72      -72.865043    
   1530000   315.15169      373.55681      18526.682      19351.154      12.101034    
Loop time of 3.34858 on 48 procs for 10000 steps with 481 atoms

Performance: 12.901 ns/day, 1.860 hours/ns, 2986.344 timesteps/s, 1.436 Matom-step/s
100.0% CPU use with 48 MPI tasks x 1 OpenMP threads

MPI task timing breakdown:
Section |  min time  |  avg time  |  max time  |%varavg| %total
---------------------------------------------------------------
Pair    | 0.0034653  | 0.14554    | 0.91612    |  62.0 |  4.35
Bond    | 0.0010029  | 0.18441    | 1.0114     |  67.4 |  5.51
Neigh   | 0.0040542  | 0.0044108  | 0.0047139  |   0.3 |  0.13
Comm    | 1.1101     | 2.4355     | 3.0527     |  42.5 | 72.73
Output  | 0.0016805  | 0.0026418  | 0.0036497  |   1.2 |  0.08
Modify  | 0.12389    | 0.45846    | 1.8957     |  89.4 | 13.69
Other   |            | 0.1176     |            |       |  3.51

Nlocal:        10.0208 ave          45 max           0 min
Histogram: 21 13 6 0 0 0 2 1 0 5
Nghost:        1818.35 ave        2348 max        1178 min
Histogram: 8 0 0 0 24 0 0 0 0 16
Neighs:              0 ave           0 max           0 min
Histogram: 48 0 0 0 0 0 0 0 0 0

Total # of neighbors = 0
Ave neighs/atom = 0
Ave special neighs/atom = 15.567568
Neighbor list builds = 11
Dangerous builds = 0
fix             myat1 all ave/time 1000 10 10000 v_zave v_zdes file simulation_data/abpot/${cpt}.dat
fix             myat1 all ave/time 1000 10 10000 v_zave v_zdes file simulation_data/abpot/26.dat
run             50000
Generated 0 of 1 mixed pair_coeff terms from geometric mixing rule
Per MPI rank memory allocation (min/avg/max) = 13.32 | 13.79 | 14.98 Mbytes
   Step          Temp          E_pair         E_mol          TotEng         Press     
   1530000   315.15169      373.55681      18526.682      19351.154      12.101034    
   1531000   303.2565       369.86384      18547.265      19351.025     -150.73158    
   1532000   300.91683      376.5277       18543.974      19351.05       13.576425    
   1533000   309.27536      369.05012      18530.757      19342.315     -74.107963    
   1534000   302.28248      369.91037      18523.016      19325.429     -76.791754    
   1535000   298.74709      367.18327      18515.021      19309.648     -85.250968    
   1536000   297.57323      371.21861      18502.567      19299.55      -24.482951    
   1537000   291.41584      372.9127       18509.155      19299.022     -29.559401    
   1538000   294.06639      369.96467      18519.391      19310.103     -37.408584    
   1539000   306.6519       362.03285      18529.133      19329.92      -215.96835    
   1540000   303.2891       374.28992      18539.633      19347.866     -6.0104024    
   1541000   296.10435      376.59488      18549.235      19349.492      135.16897    
   1542000   301.92254      378.18632      18539.492      19349.666      133.79239    
   1543000   314.76862      369.26144      18528.87       19348.498     -82.161244    
   1544000   308.76065      360.65633      18540.727      19343.155     -309.62024    
   1545000   305.11555      379.89803      18521.106      19337.56       205.43625    
   1546000   298.54683      375.74477      18527.07       19329.972      137.25185    
   1547000   299.31133      376.04112      18522.104      19326.396      1.5153609    
   1548000   297.24245      361.22382      18532.608      19319.123     -252.74042    
   1549000   308.00576      361.08569      18509.282      19311.059     -265.77984    
   1550000   282.08991      373.39651      18527.516      19304.523      125.55533    
   1551000   293.42066      383.68987      18500.613      19304.126      303.80187    
   1552000   293.96893      367.47723      18515.479      19303.563      32.868159    
   1553000   281.03764      357.18275      18544.589      19303.877     -438.3608     
   1554000   308.1378       371.98464      18503.473      19316.338      57.283303    
   1555000   294.59792      382.96321      18525.319      19329.79       217.53701    
   1556000   300.55005      379.61686      18532.741      19342.381      49.614735    
   1557000   321.06726      366.66039      18528.788      19354.828     -158.12398    
   1558000   308.9327       362.18176      18556.431      19360.631     -253.56668    
   1559000   299.06417      376.13651      18545.371      19349.405      98.187475    
   1560000   302.53248      375.83252      18517.737      19326.43       67.426828    
   1561000   306.72714      374.43329      18496.188      19309.483      9.4883568    
   1562000   284.40504      366.59607      18532          19305.519     -122.58236    
   1563000   301.47224      362.84751      18514.586      19308.777     -157.22617    
   1564000   281.51494      370.78117      18537.689      19311.259      122.60761    
   1565000   277.52364      376.76284      18540.216      19314.056      85.873833    
   1566000   306.14327      368.87346      18514.99       19321.89      -156.40495    
   1567000   300.19062      369.42879      18532.944      19331.882     -95.667638    
   1568000   298.91366      369.47579      18544.546      19341.704     -100.09019    
   1569000   316.00516      376.11169      18525.551      19353.799      209.68036    
   1570000   321.3695       365.59344      18539.042      19364.447     -212.15272    
   1571000   311.52704      371.43569      18558.34       19375.505     -95.782957    
   1572000   323.41223      378.66314      18543.302      19384.7        46.669606    
   1573000   331.20048      376.84085      18527.209      19377.928      234.88051    
   1574000   332.95847      372.15119      18504.81       19353.355     -14.841919    
   1575000   313.43978      362.00144      18520.526      19330.994     -235.41867    
   1576000   306.0404       373.0054       18512.377      19323.262     -45.608461    
   1577000   300.53962      382.4582       18504.672      19317.139      173.49068    
   1578000   294.34119      376.24781      18514.601      19311.989      168.39415    
   1579000   290.09476      360.82558      18532.998      19308.888     -298.44709    
   1580000   287.2738       372.35183      18524.274      19307.654     -87.218899    
Loop time of 16.2401 on 48 procs for 50000 steps with 481 atoms

Performance: 13.300 ns/day, 1.804 hours/ns, 3078.798 timesteps/s, 1.481 Matom-step/s
100.0% CPU use with 48 MPI tasks x 1 OpenMP threads

MPI task timing breakdown:
Section |  min time  |  avg time  |  max time  |%varavg| %total
---------------------------------------------------------------
Pair    | 0.017555   | 0.7283     | 4.5387     | 137.1 |  4.48
Bond    | 0.0050217  | 0.92112    | 4.5562     | 148.7 |  5.67
Neigh   | 0.016033   | 0.017573   | 0.018846   |   0.6 |  0.11
Comm    | 5.9375     | 11.802     | 14.747     |  91.9 | 72.67
Output  | 0.0080051  | 0.012909   | 0.017861   |   2.7 |  0.08
Modify  | 0.63318    | 2.1683     | 8.9004     | 190.9 | 13.35
Other   |            | 0.59       |            |       |  3.63

Nlocal:        10.0208 ave          48 max           0 min
Histogram: 24 10 6 0 0 0 2 3 0 3
Nghost:        1818.35 ave        2348 max        1175 min
Histogram: 8 0 0 0 24 0 0 0 0 16
Neighs:              0 ave           0 max           0 min
Histogram: 48 0 0 0 0 0 0 0 0 0

Total # of neighbors = 0
Ave neighs/atom = 0
Ave special neighs/atom = 15.567568
Neighbor list builds = 46
Dangerous builds = 0
unfix           myat1
next            cpt
jump            SELF loop
variable        zdes equal  -15+0.30*(${cpt}-1)
variable        zdes equal  -15+0.30*(27-1)
variable        zave equal xcm(H2,z)
fix             mytth2 H2 spring tether ${k1} 2.5 2.5 ${zdes} 0
fix             mytth2 H2 spring tether 0.5 2.5 2.5 ${zdes} 0
fix             mytth2 H2 spring tether 0.5 2.5 2.5 -7.2 0
run             10000
Generated 0 of 1 mixed pair_coeff terms from geometric mixing rule
Per MPI rank memory allocation (min/avg/max) = 13.32 | 13.79 | 14.98 Mbytes
   Step          Temp          E_pair         E_mol          TotEng         Press     
   1580000   287.2738       372.35183      18524.274      19307.654     -87.218899    
   1581000   291.60231      369.85318      18528.678      19315.753      4.4679349    
   1582000   299.5506       378.93282      18525.758      19333.285     -22.956747    
   1583000   312.32525      366.17595      18540.264      19353.311     -111.5818     
   1584000   323.27819      360.53177      18535.449      19358.524     -283.75381    
   1585000   312.00091      378.75981      18527.471      19352.638      141.38409    
   1586000   304.13047      379.42883      18524.564      19339.139      261.55193    
   1587000   294.25987      372.16276      18536.573      19329.759     -40.385024    
   1588000   304.7941       362.83478      18524.536      19323.466     -266.98323    
   1589000   296.95938      372.36564      18521.591      19318.843     -123.37987    
   1590000   283.35724      382.4869       18527.174      19315.085      179.36487    
Loop time of 3.29301 on 48 procs for 10000 steps with 481 atoms

Performance: 13.119 ns/day, 1.829 hours/ns, 3036.736 timesteps/s, 1.461 Matom-step/s
100.0% CPU use with 48 MPI tasks x 1 OpenMP threads

MPI task timing breakdown:
Section |  min time  |  avg time  |  max time  |%varavg| %total
---------------------------------------------------------------
Pair    | 0.0035754  | 0.1454     | 0.91052    |  61.7 |  4.42
Bond    | 0.00102    | 0.18409    | 0.94786    |  66.9 |  5.59
Neigh   | 0.002838   | 0.0031005  | 0.0033115  |   0.2 |  0.09
Comm    | 1.2069     | 2.384      | 3.0016     |  41.4 | 72.40
Output  | 0.0016132  | 0.0025788  | 0.0036026  |   1.2 |  0.08
Modify  | 0.1231     | 0.45583    | 1.8226     |  85.9 | 13.84
Other   |            | 0.118      |            |       |  3.58

Nlocal:        10.0208 ave          55 max           0 min
Histogram: 25 11 4 1 0 2 1 1 2 1
Nghost:        1818.35 ave        2347 max        1177 min
Histogram: 8 0 0 0 24 0 0 0 0 16
Neighs:              0 ave           0 max           0 min
Histogram: 48 0 0 0 0 0 0 0 0 0

Total # of neighbors = 0
Ave neighs/atom = 0
Ave special neighs/atom = 15.567568
Neighbor list builds = 8
Dangerous builds = 0
fix             myat1 all ave/time 1000 10 10000 v_zave v_zdes file simulation_data/abpot/${cpt}.dat
fix             myat1 all ave/time 1000 10 10000 v_zave v_zdes file simulation_data/abpot/27.dat
run             50000
Generated 0 of 1 mixed pair_coeff terms from geometric mixing rule
Per MPI rank memory allocation (min/avg/max) = 13.32 | 13.79 | 14.98 Mbytes
   Step          Temp          E_pair         E_mol          TotEng         Press     
   1590000   283.35724      382.4869       18527.174      19315.085      179.36487    
   1591000   301.36737      372.17961      18514.34       19317.712      153.81461    
   1592000   319.49814      360.74248      18506.579      19324.456     -211.61426    
   1593000   305.27162      365.73809      18526.476      19328.994     -107.06798    
   1594000   303.39188      377.40199      18522.558      19334.05       61.923293    
   1595000   289.13233      375.06445      18553.282      19342.034     -36.808485    
   1596000   305.5249       367.21777      18550.358      19354.717     -114.01457    
   1597000   310.53659      362.42684      18565.239      19371.978     -376.93735    
   1598000   308.70932      375.90592      18558.702      19376.306     -49.523242    
   1599000   307.56138      379.92478      18554.106      19374.086      136.72542    
   1600000   295.48421      377.15384      18554.731      19354.66       56.961413    
   1601000   312.49046      365.79333      18519.067      19331.968     -252.89676    
   1602000   292.84247      368.60607      18533.014      19320.615     -115.37583    
   1603000   296.62432      373.17212      18517.925      19315.503     -33.924046    
   1604000   285.30387      372.87336      18533.15       19314.233     -77.386658    
   1605000   289.80853      371.48231      18528.318      19314.455     -32.976782    
   1606000   285.00678      368.27896      18544.05       19320.114     -159.64567    
   1607000   314.77197      372.27646      18517.872      19340.521      1.6025067    
   1608000   312.55448      376.52545      18537.8        19361.525      72.385161    
   1609000   318.8571       371.98074      18540.144      19368.342     -123.55438    
   1610000   327.39407      375.22863      18521.428      19365.088      204.68457    
   1611000   313.20775      367.17774      18535.956      19351.268     -62.535414    
   1612000   288.90945      372.34417      18560.284      19345.996     -218.60269    
   1613000   298.14956      376.82339      18541.968      19345.381      288.03829    
   1614000   302.4248       373.05605      18533.37       19339.132      39.255908    
   1615000   295.47123      364.89769      18545.68       19333.335     -138.71205    
   1616000   306.22636      371.77732      18517.925      19327.848     -23.412426    
   1617000   290.66987      372.34766      18534.295      19322.53      -14.48148     
   1618000   295.50397      371.23883      18524.02       19318.062     -35.126195    
   1619000   299.65222      373.41047      18512.109      19314.258      44.129157    
   1620000   276.45435      366.41633      18548.369      19310.333     -191.62379    
   1621000   285.61293      377.34788      18531.886      19317.886      125.94636    
   1622000   293.27827      373.45092      18538.342      19331.412     -73.216727    
   1623000   304.86202      369.96224      18541.323      19347.479      29.560095    
   1624000   293.62549      373.51531      18564.746      19358.377     -29.659395    
   1625000   307.44348      375.87668      18546.597      19362.36       47.713394    
   1626000   310.9123       370.59712      18544.627      19360.074     -10.01556     
   1627000   304.45798      370.46465      18547.363      19353.442     -83.675605    
   1628000   294.89053      363.81667      18552.401      19338.144     -134.9388     
   1629000   287.62096      377.32358      18526.379      19315.227      102.73962    
   1630000   289.51048      373.66692      18519.697      19307.592     -30.375743    
   1631000   282.60014      370.5292       18533.105      19307.976     -180.18373    
   1632000   287.93888      373.8177       18529.393      19315.191      66.984113    
   1633000   276.02461      370.57159      18559.244      19324.748     -79.705267    
   1634000   287.27565      377.09198      18542.909      19331.032      56.142734    
   1635000   304.3138       375.03943      18530.063      19340.511     -28.517818    
   1636000   299.63058      370.60649      18548.721      19348.036     -145.8246     
   1637000   301.58707      372.41376      18547.902      19351.823     -42.434393    
   1638000   310.99288      368.01918      18537.913      19350.897     -67.435682    
   1639000   303.05204      367.29198      18540.845      19341.741     -78.473386    
   1640000   284.07787      373.30634      18534.903      19314.665     -59.496587    
Loop time of 16.5188 on 48 procs for 50000 steps with 481 atoms

Performance: 13.076 ns/day, 1.835 hours/ns, 3026.859 timesteps/s, 1.456 Matom-step/s
100.0% CPU use with 48 MPI tasks x 1 OpenMP threads

MPI task timing breakdown:
Section |  min time  |  avg time  |  max time  |%varavg| %total
---------------------------------------------------------------
Pair    | 0.017474   | 0.72858    | 4.57       | 137.5 |  4.41
Bond    | 0.0050289  | 0.92143    | 4.7074     | 149.4 |  5.58
Neigh   | 0.018687   | 0.0205     | 0.022012   |   0.6 |  0.12
Comm    | 6.3201     | 11.985     | 15.005     |  92.7 | 72.56
Output  | 0.0081894  | 0.013079   | 0.018039   |   2.7 |  0.08
Modify  | 0.64193    | 2.2599     | 9.1969     | 193.4 | 13.68
Other   |            | 0.5899     |            |       |  3.57

Nlocal:        10.0208 ave          47 max           0 min
Histogram: 23 9 7 1 0 0 2 2 1 3
Nghost:        1818.35 ave        2348 max        1176 min
Histogram: 8 0 0 0 24 0 0 0 0 16
Neighs:              0 ave           0 max           0 min
Histogram: 48 0 0 0 0 0 0 0 0 0

Total # of neighbors = 0
Ave neighs/atom = 0
Ave special neighs/atom = 15.567568
Neighbor list builds = 53
Dangerous builds = 0
unfix           myat1
next            cpt
jump            SELF loop
variable        zdes equal  -15+0.30*(${cpt}-1)
variable        zdes equal  -15+0.30*(28-1)
variable        zave equal xcm(H2,z)
fix             mytth2 H2 spring tether ${k1} 2.5 2.5 ${zdes} 0
fix             mytth2 H2 spring tether 0.5 2.5 2.5 ${zdes} 0
fix             mytth2 H2 spring tether 0.5 2.5 2.5 -6.9 0
run             10000
Generated 0 of 1 mixed pair_coeff terms from geometric mixing rule
Per MPI rank memory allocation (min/avg/max) = 13.32 | 13.79 | 14.98 Mbytes
   Step          Temp          E_pair         E_mol          TotEng         Press     
   1640000   284.07787      373.30634      18534.903      19314.665     -59.496587    
   1641000   291.04766      375.38091      18500.976      19292.785      92.751305    
   1642000   286.52149      371.01712      18508.497      19289.466     -74.708914    
   1643000   269.82353      365.76883      18542.984      19294.813     -219.4262     
   1644000   303.0967       365.5964       18508.765      19308.029     -175.75306    
   1645000   303.15149      374.65456      18514.657      19323.057      172.17878    
   1646000   294.94908      375.47825      18535.823      19333.311     -47.363938    
   1647000   312.47544      370.41454      18524.848      19342.349     -22.858529    
   1648000   305.21847      365.49271      18541.461      19343.657     -158.53225    
   1649000   302.00379      379.89587      18531.475      19343.474      224.1257     
   1650000   312.67796      369.45183      18519.838      19336.666     -165.15548    
Loop time of 3.40063 on 48 procs for 10000 steps with 481 atoms

Performance: 12.704 ns/day, 1.889 hours/ns, 2940.631 timesteps/s, 1.414 Matom-step/s
100.0% CPU use with 48 MPI tasks x 1 OpenMP threads

MPI task timing breakdown:
Section |  min time  |  avg time  |  max time  |%varavg| %total
---------------------------------------------------------------
Pair    | 0.00337    | 0.14563    | 0.93089    |  62.6 |  4.28
Bond    | 0.0010039  | 0.18431    | 1.0075     |  67.3 |  5.42
Neigh   | 0.0024461  | 0.0026904  | 0.0029061  |   0.2 |  0.08
Comm    | 1.1882     | 2.4912     | 3.1091     |  42.8 | 73.26
Output  | 0.0016643  | 0.0026274  | 0.0036413  |   1.2 |  0.08
Modify  | 0.12669    | 0.45716    | 1.947      |  91.3 | 13.44
Other   |            | 0.117      |            |       |  3.44

Nlocal:        10.0208 ave          49 max           0 min
Histogram: 25 6 8 1 0 0 1 4 2 1
Nghost:        1818.35 ave        2348 max        1174 min
Histogram: 8 0 0 0 24 0 0 0 0 16
Neighs:              0 ave           0 max           0 min
Histogram: 48 0 0 0 0 0 0 0 0 0

Total # of neighbors = 0
Ave neighs/atom = 0
Ave special neighs/atom = 15.567568
Neighbor list builds = 7
Dangerous builds = 0
fix             myat1 all ave/time 1000 10 10000 v_zave v_zdes file simulation_data/abpot/${cpt}.dat
fix             myat1 all ave/time 1000 10 10000 v_zave v_zdes file simulation_data/abpot/28.dat
run             50000
Generated 0 of 1 mixed pair_coeff terms from geometric mixing rule
Per MPI rank memory allocation (min/avg/max) = 13.32 | 13.79 | 14.98 Mbytes
   Step          Temp          E_pair         E_mol          TotEng         Press     
   1650000   312.67796      369.45183      18519.838      19336.666     -165.15548    
   1651000   291.0299       370.87064      18534.121      19321.394     -238.59524    
   1652000   282.92525      378.647        18520.565      19304.018      72.968043    
   1653000   270.51678      370.13944      18527.077      19284.269     -20.625094    
   1654000   278.53568      368.15487      18512.725      19279.405     -191.01953    
   1655000   293.49765      371.35866      18494.783      19286.075     -59.32769     
   1656000   293.72824      374.89577      18497.409      19292.567     -105.06347    
   1657000   296.80859      376.88318      18501.035      19302.588      76.620096    
   1658000   308.24906      372.27436      18499.661      19312.975     -8.8395137    
   1659000   284.61448      359.50834      18554.84       19321.572     -362.11777    
   1660000   288.47507      379.84644      18541.193      19333.787      152.02667    
   1661000   304.31351      378.68632      18528.034      19342.128     -17.232554    
   1662000   303.4692       370.83374      18542.05       19347.084     -198.69424    
   1663000   306.74011      367.44646      18534.376      19340.703     -139.27912    
   1664000   302.19968      366.33607      18525.754      19324.474     -72.729474    
   1665000   290.64601      383.2208       18500.953      19300.027      213.73361    
   1666000   281.9007       375.6316       18507.627      19286.599     -50.23431     
   1667000   290.31015      368.79713      18503.076      19287.246     -177.52197    
   1668000   294.56669      370.4101       18501.975      19293.848     -39.447534    
   1669000   279.54461      376.39596      18524.697      19301.063      21.973322    
   1670000   313.06258      379.11932      18493.023      19320.069      101.97945    
   1671000   297.31299      371.07419      18531.632      19328.098     -259.68069    
   1672000   308.14008      366.66764      18524.958      19332.509     -239.26952    
   1673000   312.07576      373.39679      18516.629      19336.541      72.666184    
   1674000   293.60777      377.25451      18534.589      19331.934      189.17765    
   1675000   303.88392      373.17351      18521.593      19329.56      -84.263255    
   1676000   308.58813      367.81546      18516.458      19325.798     -97.474126    
   1677000   310.69766      369.00642      18504.01       19317.559     -108.89769    
   1678000   307.35934      374.54565      18483.745      19298.057      62.976185    
   1679000   280.1733       376.42295      18502.286      19279.577      88.416304    
   1680000   268.57049      370.44807      18519.852      19274.568     -45.212901    
   1681000   280.11991      369.55831      18511.623      19281.974     -148.81518    
   1682000   289.13348      375.34011      18510.84       19299.869      39.053796    
   1683000   289.69019      372.39169      18535.515      19322.393      25.296223    
   1684000   303.88658      375.41493      18520.742      19330.954      48.545146    
   1685000   301.03349      376.44717      18531.375      19338.538      4.2142927    
   1686000   305.43611      370.12311      18537.383      19344.521     -143.02663    
   1687000   322.58057      375.569        18506.896      19344.01       72.542055    
   1688000   300.67011      370.8428       18536.026      19337.064     -101.12901    
   1689000   302.58909      368.89401      18523.286      19325.122     -117.91579    
   1690000   298.83653      377.96251      18504.061      19309.595      29.982495    
   1691000   283.71066      370.00018      18524.647      19300.577     -151.66054    
   1692000   295.70719      371.22004      18501.506      19295.821     -69.727885    
   1693000   303.74935      375.24977      18485.338      19295.189      40.746065    
   1694000   293.30056      368.74103      18511.619      19300.011     -170.1552     
   1695000   299.12972      376.29377      18515.158      19319.443      56.818091    
   1696000   308.89286      375.11931      18523.22       19340.299     -9.7452339    
   1697000   309.75525      369.27517      18538.748      19351.217     -279.89443    
   1698000   308.93695      375.19913      18536.328      19353.551     -23.694117    
   1699000   313.48954      374.12287      18527.637      19350.297      53.007219    
   1700000   325.16067      370.82753      18505.894      19341.958     -39.018057    
Loop time of 16.2055 on 48 procs for 50000 steps with 481 atoms

Performance: 13.329 ns/day, 1.801 hours/ns, 3085.368 timesteps/s, 1.484 Matom-step/s
100.0% CPU use with 48 MPI tasks x 1 OpenMP threads

MPI task timing breakdown:
Section |  min time  |  avg time  |  max time  |%varavg| %total
---------------------------------------------------------------
Pair    | 0.017283   | 0.72764    | 4.5269     | 137.4 |  4.49
Bond    | 0.0050468  | 0.92047    | 4.7008     | 149.7 |  5.68
Neigh   | 0.02292    | 0.025081   | 0.026794   |   0.7 |  0.15
Comm    | 6.0665     | 11.686     | 14.699     |  91.4 | 72.11
Output  | 0.0080834  | 0.012932   | 0.017807   |   2.7 |  0.08
Modify  | 0.63983    | 2.2452     | 8.8894     | 187.0 | 13.85
Other   |            | 0.5883     |            |       |  3.63

Nlocal:        10.0208 ave          51 max           0 min
Histogram: 24 12 3 1 0 1 1 4 0 2
Nghost:        1818.35 ave        2348 max        1172 min
Histogram: 8 0 0 0 24 0 0 0 0 16
Neighs:              0 ave           0 max           0 min
Histogram: 48 0 0 0 0 0 0 0 0 0

Total # of neighbors = 0
Ave neighs/atom = 0
Ave special neighs/atom = 15.567568
Neighbor list builds = 66
Dangerous builds = 0
unfix           myat1
next            cpt
jump            SELF loop
variable        zdes equal  -15+0.30*(${cpt}-1)
variable        zdes equal  -15+0.30*(29-1)
variable        zave equal xcm(H2,z)
fix             mytth2 H2 spring tether ${k1} 2.5 2.5 ${zdes} 0
fix             mytth2 H2 spring tether 0.5 2.5 2.5 ${zdes} 0
fix             mytth2 H2 spring tether 0.5 2.5 2.5 -6.6 0
run             10000
Generated 0 of 1 mixed pair_coeff terms from geometric mixing rule
Per MPI rank memory allocation (min/avg/max) = 13.32 | 13.79 | 14.98 Mbytes
   Step          Temp          E_pair         E_mol          TotEng         Press     
   1700000   325.16067      370.82753      18505.894      19341.958     -39.018057    
   1701000   295.96783      368.70523      18532.832      19325.004     -163.31774    
   1702000   287.22108      373.44623      18519.75       19304.149      9.2279871    
   1703000   287.95199      378.56814      18507.163      19297.73       156.71806    
   1704000   293.30379      369.78132      18515.505      19304.942     -45.526325    
   1705000   288.55291      369.72856      18527.596      19310.183     -20.718847    
   1706000   298.18629      368.44376      18523.195      19318.28      -168.29487    
   1707000   312.65826      381.06507      18498.15       19326.563      235.26117    
   1708000   307.6801       377.34518      18512.707      19330.277      113.0931     
   1709000   307.7571       365.97415      18523.68       19329.99      -180.16051    
   1710000   303.70701      373.3019       18531.012      19338.855     -83.197205    
Loop time of 3.24595 on 48 procs for 10000 steps with 481 atoms

Performance: 13.309 ns/day, 1.803 hours/ns, 3080.767 timesteps/s, 1.482 Matom-step/s
100.0% CPU use with 48 MPI tasks x 1 OpenMP threads

MPI task timing breakdown:
Section |  min time  |  avg time  |  max time  |%varavg| %total
---------------------------------------------------------------
Pair    | 0.0034955  | 0.14536    | 0.90619    |  61.4 |  4.48
Bond    | 0.0010059  | 0.184      | 0.9572     |  66.9 |  5.67
Neigh   | 0.0060454  | 0.0066061  | 0.0070784  |   0.4 |  0.20
Comm    | 1.2454     | 2.3425     | 2.9441     |  41.1 | 72.17
Output  | 0.0016547  | 0.0026213  | 0.0036325  |   1.2 |  0.08
Modify  | 0.12247    | 0.44699    | 1.7843     |  84.5 | 13.77
Other   |            | 0.1179     |            |       |  3.63

Nlocal:        10.0208 ave          51 max           0 min
Histogram: 25 11 4 0 1 0 1 3 1 2
Nghost:        1818.35 ave        2348 max        1176 min
Histogram: 8 0 0 0 24 0 0 0 0 16
Neighs:              0 ave           0 max           0 min
Histogram: 48 0 0 0 0 0 0 0 0 0

Total # of neighbors = 0
Ave neighs/atom = 0
Ave special neighs/atom = 15.567568
Neighbor list builds = 17
Dangerous builds = 0
fix             myat1 all ave/time 1000 10 10000 v_zave v_zdes file simulation_data/abpot/${cpt}.dat
fix             myat1 all ave/time 1000 10 10000 v_zave v_zdes file simulation_data/abpot/29.dat
run             50000
Generated 0 of 1 mixed pair_coeff terms from geometric mixing rule
Per MPI rank memory allocation (min/avg/max) = 13.32 | 13.79 | 14.98 Mbytes
   Step          Temp          E_pair         E_mol          TotEng         Press     
   1710000   303.70701      373.3019       18531.012      19338.855     -83.197205    
   1711000   301.81843      383.377        18535.151      19350.366      116.74924    
   1712000   315.74648      371.75625      18532.923      19356.446     -74.917008    
   1713000   301.38163      368.56732      18559.527      19359.307     -246.9029     
   1714000   300.52669      375.19145      18555.363      19360.545      11.985207    
   1715000   304.54135      379.30938      18537.864      19352.908     -31.303429    
   1716000   312.63454      375.69919      18518.463      19341.476      25.091161    
   1717000   296.65898      373.61748      18526.227      19324.3       -137.66261    
   1718000   284.57832      370.77535      18534.966      19312.913     -122.95475    
   1719000   297.9872       373.27097      18512.929      19312.557     -76.582442    
   1720000   285.20021      380.4798       18522.673      19311.214      181.54831    
   1721000   294.089        370.18536      18525.775      19316.74      -31.442468    
   1722000   293.38622      366.49709      18547.255      19333.526     -246.05772    
   1723000   306.20666      382.64319      18533.33       19354.09       146.70013    
   1724000   300.5229       379.06584      18552.247      19361.297      46.132501    
   1725000   316.31594      376.17212      18534.737      19363.49      -117.13083    
   1726000   308.46134      376.99868      18540.681      19359.023      141.01116    
   1727000   301.94048      367.08153      18551.943      19351.038     -279.13875    
   1728000   298.9896       380.28653      18533.64       19341.718      151.18705    
   1729000   297.36037      375.28913      18529.217      19329.966      59.165565    
   1730000   304.6741       370.9878       18520.33       19327.242     -169.61405    
   1731000   299.02593      373.93653      18527.011      19328.79       89.814365    
   1732000   286.76792      371.59854      18545.158      19327.061     -321.45656    
   1733000   293.76428      376.99232      18527.952      19325.259      34.823003    
   1734000   287.34619      378.78674      18533.306      19323.225      107.19785    
   1735000   294.85762      370.58881      18529.356      19321.823     -20.368595    
   1736000   292.33483      367.69626      18531.469      19317.434     -209.75194    
   1737000   290.57383      371.91574      18520.522      19308.187     -32.162857    
   1738000   287.19133      384.46757      18504.958      19300.336      296.29699    
   1739000   299.12097      375.52455      18499.513      19303.017      94.044458    
   1740000   289.85657      365.77422      18527.461      19307.959     -238.51994    
   1741000   305.65275      366.87602      18514.497      19318.698     -259.6449     
   1742000   291.59467      375.61542      18538.826      19331.652      30.815028    
   1743000   308.79457      388.37707      18516.074      19346.271      217.34641    
   1744000   305.07269      371.15841      18545.808      19353.461     -62.15994     
   1745000   303.0231       358.1831       18563.131      19354.876     -267.72573    
   1746000   306.73051      375.91333      18530.818      19345.598      33.445127    
   1747000   289.19883      381.41759      18527.733      19322.933      183.58485    
   1748000   301.07184      380.11824      18488.202      19299.091      148.40946    
   1749000   296.08064      366.66456      18502.203      19292.497     -167.88739    
   1750000   293.01084      365.5422       18510.269      19295.048     -278.0096     
   1751000   280.61005      377.80066      18524.36       19303.654      127.70926    
   1752000   291.53591      381.46031      18519.782      19318.369      36.174812    
   1753000   291.707        378.21754      18533.333      19328.922      0.51857843   
   1754000   294.57401      361.83262      18555.118      19338.423     -301.85123    
   1755000   303.82114      368.73578      18541.389      19344.829     -133.12903    
   1756000   295.60932      380.32252      18545.126      19348.403      120.68629    
   1757000   311.11242      374.08602      18529.328      19348.55       74.221284    
   1758000   302.42693      369.45466      18541.277      19343.44      -151.43712    
   1759000   305.03019      373.07598      18521.404      19330.914     -66.981459    
   1760000   292.44985      369.14982      18518.532      19306.116     -17.9118      
Loop time of 16.1599 on 48 procs for 50000 steps with 481 atoms

Performance: 13.366 ns/day, 1.796 hours/ns, 3094.071 timesteps/s, 1.488 Matom-step/s
100.0% CPU use with 48 MPI tasks x 1 OpenMP threads

MPI task timing breakdown:
Section |  min time  |  avg time  |  max time  |%varavg| %total
---------------------------------------------------------------
Pair    | 0.017432   | 0.72738    | 4.4857     | 136.3 |  4.50
Bond    | 0.0050613  | 0.91996    | 4.5948     | 149.2 |  5.69
Neigh   | 0.029962   | 0.03265    | 0.034914   |   0.8 |  0.20
Comm    | 6.2725     | 11.655     | 14.647     |  91.4 | 72.13
Output  | 0.0081839  | 0.013092   | 0.017977   |   2.7 |  0.08
Modify  | 0.6359     | 2.2215     | 8.8827     | 187.7 | 13.75
Other   |            | 0.59       |            |       |  3.65

Nlocal:        10.0208 ave          46 max           0 min
Histogram: 23 10 6 1 0 0 2 2 0 4
Nghost:        1818.35 ave        2347 max        1178 min
Histogram: 8 0 0 0 24 0 0 0 0 16
Neighs:              0 ave           0 max           0 min
Histogram: 48 0 0 0 0 0 0 0 0 0

Total # of neighbors = 0
Ave neighs/atom = 0
Ave special neighs/atom = 15.567568
Neighbor list builds = 85
Dangerous builds = 0
unfix           myat1
next            cpt
jump            SELF loop
variable        zdes equal  -15+0.30*(${cpt}-1)
variable        zdes equal  -15+0.30*(30-1)
variable        zave equal xcm(H2,z)
fix             mytth2 H2 spring tether ${k1} 2.5 2.5 ${zdes} 0
fix             mytth2 H2 spring tether 0.5 2.5 2.5 ${zdes} 0
fix             mytth2 H2 spring tether 0.5 2.5 2.5 -6.3 0
run             10000
Generated 0 of 1 mixed pair_coeff terms from geometric mixing rule
Per MPI rank memory allocation (min/avg/max) = 13.32 | 13.79 | 14.98 Mbytes
   Step          Temp          E_pair         E_mol          TotEng         Press     
   1760000   292.44985      369.14982      18518.532      19306.116     -17.9118      
   1761000   293.52596      373.75758      18498.794      19292.525      52.50538     
   1762000   286.68258      369.09414      18512.678      19291.954     -60.174048    
   1763000   294.18357      367.98486      18511.458      19300.358     -158.77608    
   1764000   287.50133      376.42767      18528.588      19316.37       61.024738    
   1765000   297.13951      380.00962      18523.986      19329.14       103.66201    
   1766000   302.35877      367.85797      18539.421      19339.89      -111.59722    
   1767000   317.33211      368.0174       18521.52       19343.572     -153.66317    
   1768000   310.11055      370.23749      18528.553      19342.493      48.12211     
   1769000   306.53177      376.28105      18519.871      19334.735      98.341088    
   1770000   291.73748      371.90018      18542.387      19331.702      84.847247    
Loop time of 3.25734 on 48 procs for 10000 steps with 481 atoms

Performance: 13.262 ns/day, 1.810 hours/ns, 3069.986 timesteps/s, 1.477 Matom-step/s
100.0% CPU use with 48 MPI tasks x 1 OpenMP threads

MPI task timing breakdown:
Section |  min time  |  avg time  |  max time  |%varavg| %total
---------------------------------------------------------------
Pair    | 0.0034795  | 0.14556    | 0.9218     |  61.2 |  4.47
Bond    | 0.0010043  | 0.18397    | 0.8615     |  66.6 |  5.65
Neigh   | 0.0038724  | 0.0042332  | 0.0045408  |   0.3 |  0.13
Comm    | 1.2439     | 2.355      | 2.9571     |  41.2 | 72.30
Output  | 0.0016777  | 0.0026454  | 0.0036121  |   1.2 |  0.08
Modify  | 0.1287     | 0.44806    | 1.8052     |  85.3 | 13.76
Other   |            | 0.1178     |            |       |  3.62

Nlocal:        10.0208 ave          54 max           0 min
Histogram: 25 10 5 0 1 1 1 3 1 1
Nghost:        1818.35 ave        2347 max        1170 min
Histogram: 8 0 0 0 24 0 0 0 0 16
Neighs:              0 ave           0 max           0 min
Histogram: 48 0 0 0 0 0 0 0 0 0

Total # of neighbors = 0
Ave neighs/atom = 0
Ave special neighs/atom = 15.567568
Neighbor list builds = 11
Dangerous builds = 0
fix             myat1 all ave/time 1000 10 10000 v_zave v_zdes file simulation_data/abpot/${cpt}.dat
fix             myat1 all ave/time 1000 10 10000 v_zave v_zdes file simulation_data/abpot/30.dat
run             50000
Generated 0 of 1 mixed pair_coeff terms from geometric mixing rule
Per MPI rank memory allocation (min/avg/max) = 13.32 | 13.79 | 14.98 Mbytes
   Step          Temp          E_pair         E_mol          TotEng         Press     
   1770000   291.73748      371.90018      18542.387      19331.702      84.847247    
   1771000   295.63122      374.36159      18535.327      19332.674     -11.872618    
   1772000   293.23098      367.44073      18538.806      19325.799     -63.473579    
   1773000   289.42649      366.95337      18524.211      19305.272     -211.70171    
   1774000   281.68505      377.35244      18509.552      19289.936      164.90882    
   1775000   276.22733      370.9714       18518.062      19284.257     -39.84663     
   1776000   287.23722      367.31367      18515.857      19294.147     -102.5065     
   1777000   294.1634       370.94808      18523.011      19314.845     -200.81722    
   1778000   306.80473      371.01819      18520.337      19330.328     -125.14719    
   1779000   316.69157      380.37506      18502.958      19336.452      229.42549    
   1780000   310.18358      371.93133      18520.062      19335.8        109.09464    
   1781000   305.19871      371.18644      18527.586      19335.447     -72.626881    
   1782000   295.38709      371.28896      18539.405      19333.33      -166.34654    
   1783000   303.33566      374.16722      18522.406      19330.582     -13.595707    
   1784000   288.37267      378.45438      18533.001      19324.055      65.453877    
   1785000   284.74098      372.06771      18526.6        19306.072     -44.409847    
   1786000   292.91647      368.81631      18496.158      19284.076     -95.460095    
   1787000   283.83568      368.0813       18498.784      19272.974     -192.98889    
   1788000   278.41582      372.71476      18507.11       19278.179     -39.557553    
   1789000   299.00019      379.48033      18484.865      19292.151      180.28588    
   1790000   288.23803      364.98641      18531.814      19309.208     -216.55777    
   1791000   303.67603      363.68128      18522.388      19320.565     -175.9427     
   1792000   318.73394      372.53641      18498.479      19327.056     -1.949626     
   1793000   307.06793      376.51852      18510.688      19326.556      49.922671    
   1794000   299.97637      379.90874      18520.553      19329.664      184.04855    
   1795000   306.02518      363.18116      18534.472      19335.511     -156.06445    
   1796000   287.82113      364.91367      18566.486      19343.211     -198.46327    
   1797000   329.10386      376.44814      18509.894      19357.22       91.391075    
   1798000   318.14326      379.08732      18529.571      19363.854      82.62894     
   1799000   306.04311      372.79741      18552.676      19363.357     -33.511941    
   1800000   317.21993      360.3601       18538.735      19352.97      -213.16508    
   1801000   291.84586      368.45326      18549.65       19335.673     -17.876646    
   1802000   301.80775      375.82689      18510.826      19318.476      29.321357    
   1803000   288.76211      375.49008      18520.481      19309.129      168.3618     
   1804000   298.49023      366.08976      18514.416      19307.583     -92.43476     
   1805000   293.72993      364.44013      18520.404      19305.11      -246.8012     
   1806000   281.40811      373.2777       18533.378      19309.292      99.999765    
   1807000   291.81219      375.51767      18527.848      19320.888      52.064622    
   1808000   301.3289       376.59948      18535.429      19343.166      37.040496    
   1809000   300.51783      364.78718      18566.345      19361.11      -227.28575    
   1810000   323.06388      373.71131      18531.415      19367.362      40.964168    
   1811000   302.57681      369.53529      18556.667      19359.126     -82.323218    
   1812000   313.83372      374.55565      18521.558      19345.144      96.775461    
   1813000   301.6226       370.84094      18527.877      19330.276     -98.622748    
   1814000   289.78302      369.60199      18535.42       19319.641     -201.74969    
   1815000   297.7629       372.42548      18516.97       19315.431      56.177938    
   1816000   306.06484      371.55068      18504.953      19314.418     -43.171397    
   1817000   296.9104       365.47986      18525.306      19315.602     -104.45454    
   1818000   288.50689      370.37965      18530.485      19313.657     -196.86956    
   1819000   302.60867      365.54999      18515.073      19313.592     -189.6579     
   1820000   271.90391      376.47974      18560.08       19325.596      88.626594    
Loop time of 15.8042 on 48 procs for 50000 steps with 481 atoms

Performance: 13.667 ns/day, 1.756 hours/ns, 3163.710 timesteps/s, 1.522 Matom-step/s
100.0% CPU use with 48 MPI tasks x 1 OpenMP threads

MPI task timing breakdown:
Section |  min time  |  avg time  |  max time  |%varavg| %total
---------------------------------------------------------------
Pair    | 0.017255   | 0.72761    | 4.4911     | 135.9 |  4.60
Bond    | 0.005116   | 0.91933    | 4.3378     | 148.3 |  5.82
Neigh   | 0.023812   | 0.026097   | 0.027999   |   0.7 |  0.17
Comm    | 6.1487     | 11.361     | 14.271     |  89.8 | 71.88
Output  | 0.0081294  | 0.013147   | 0.018217   |   2.8 |  0.08
Modify  | 0.65567    | 2.1653     | 8.5045     | 181.3 | 13.70
Other   |            | 0.5922     |            |       |  3.75

Nlocal:        10.0208 ave          46 max           0 min
Histogram: 28 3 6 3 0 0 1 1 3 3
Nghost:        1818.35 ave        2347 max        1177 min
Histogram: 8 0 0 0 24 0 0 0 0 16
Neighs:              0 ave           0 max           0 min
Histogram: 48 0 0 0 0 0 0 0 0 0

Total # of neighbors = 0
Ave neighs/atom = 0
Ave special neighs/atom = 15.567568
Neighbor list builds = 69
Dangerous builds = 0
unfix           myat1
next            cpt
jump            SELF loop
variable        zdes equal  -15+0.30*(${cpt}-1)
variable        zdes equal  -15+0.30*(31-1)
variable        zave equal xcm(H2,z)
fix             mytth2 H2 spring tether ${k1} 2.5 2.5 ${zdes} 0
fix             mytth2 H2 spring tether 0.5 2.5 2.5 ${zdes} 0
fix             mytth2 H2 spring tether 0.5 2.5 2.5 -6 0
run             10000
Generated 0 of 1 mixed pair_coeff terms from geometric mixing rule
Per MPI rank memory allocation (min/avg/max) = 13.32 | 13.8 | 14.98 Mbytes
   Step          Temp          E_pair         E_mol          TotEng         Press     
   1820000   271.90391      376.47974      18560.08       19325.596      88.626594    
   1821000   308.40334      377.73463      18527.445      19346.44       142.176      
   1822000   303.91762      370.18516      18557.859      19362.886     -100.27562    
   1823000   301.8946       365.12073      18563.548      19360.616     -347.34265    
   1824000   302.25938      371.05868      18545.947      19349.475      36.381958    
   1825000   293.75575      378.0994       18534.739      19333.141      258.53099    
   1826000   289.92673      374.18546      18527.521      19316.53      -76.520198    
   1827000   281.98961      370.94047      18537.196      19311.605     -77.055333    
   1828000   288.42865      362.9327       18537.948      19313.562     -365.45708    
   1829000   309.3339       376.75018      18499.771      19319.112      160.34838    
   1830000   310.59718      378.65417      18496.472      19319.525      130.56459    
Loop time of 3.18333 on 48 procs for 10000 steps with 481 atoms

Performance: 13.571 ns/day, 1.769 hours/ns, 3141.360 timesteps/s, 1.511 Matom-step/s
100.0% CPU use with 48 MPI tasks x 1 OpenMP threads

MPI task timing breakdown:
Section |  min time  |  avg time  |  max time  |%varavg| %total
---------------------------------------------------------------
Pair    | 0.0033958  | 0.14543    | 0.92152    |  60.8 |  4.57
Bond    | 0.0010023  | 0.18389    | 0.90772    |  66.7 |  5.78
Neigh   | 0.0062167  | 0.0068082  | 0.0072911  |   0.4 |  0.21
Comm    | 1.1912     | 2.2807     | 2.8663     |  39.7 | 71.65
Output  | 0.0016407  | 0.0026454  | 0.003681   |   1.3 |  0.08
Modify  | 0.1355     | 0.44563    | 1.6925     |  79.6 | 14.00
Other   |            | 0.1182     |            |       |  3.71

Nlocal:        10.0208 ave          48 max           0 min
Histogram: 24 7 9 0 0 0 2 2 1 3
Nghost:        1818.35 ave        2348 max        1175 min
Histogram: 8 0 0 0 24 0 0 0 0 16
Neighs:              0 ave           0 max           0 min
Histogram: 48 0 0 0 0 0 0 0 0 0

Total # of neighbors = 0
Ave neighs/atom = 0
Ave special neighs/atom = 15.567568
Neighbor list builds = 18
Dangerous builds = 0
fix             myat1 all ave/time 1000 10 10000 v_zave v_zdes file simulation_data/abpot/${cpt}.dat
fix             myat1 all ave/time 1000 10 10000 v_zave v_zdes file simulation_data/abpot/31.dat
run             50000
Generated 0 of 1 mixed pair_coeff terms from geometric mixing rule
Per MPI rank memory allocation (min/avg/max) = 13.32 | 13.8 | 14.98 Mbytes
   Step          Temp          E_pair         E_mol          TotEng         Press     
   1830000   310.59718      378.65417      18496.472      19319.525      130.56459    
   1831000   304.40394      369.57142      18515.406      19320.515     -96.113621    
   1832000   303.53662      365.67532      18522.266      19322.238     -201.21306    
   1833000   293.23043      372.32749      18533.453      19325.331     -40.311283    
   1834000   298.98774      370.58324      18529.892      19328.263     -6.5225259    
   1835000   301.57068      377.48018      18519.739      19328.704      123.72102    
   1836000   296.21803      366.96803      18534.532      19325.326     -219.12563    
   1837000   295.6          368.71079      18535.012      19326.664     -233.44133    
   1838000   299.92278      372.65933      18527.597      19329.383     -102.95202    
   1839000   284.7332       375.57014      18544.381      19327.344      118.41917    
   1840000   298.40124      366.73558      18538.269      19331.954     -244.77658    
   1841000   306.54142      368.21143      18531.193      19338         -76.127818    
   1842000   309.42712      373.63704      18528.329      19344.691      23.036082    
   1843000   298.08905      373.41849      18548.686      19348.607      4.054216     
   1844000   313.93871      371.26515      18525.622      19346.067      11.926058    
   1845000   309.39193      364.87964      18532.352      19339.906     -170.86812    
   1846000   287.34638      371.2003       18545.165      19327.497     -110.69117    
   1847000   291.51649      369.1823       18525.899      19312.18      -80.638376    
   1848000   287.08448      371.15986      18517.124      19299.041     -13.199836    
   1849000   290.37387      376.28246      18505.449      19297.195      177.56819    
   1850000   286.97851      366.53459      18521.964      19299.104     -299.27696    
   1851000   303.82208      373.99343      18501.657      19310.356      52.869352    
   1852000   302.19903      379.97802      18525.238      19337.599      57.108931    
   1853000   304.78446      373.21301      18546.581      19355.876     -10.274086    
   1854000   302.55785      377.18747      18548.885      19358.969     -1.5286609    
   1855000   303.05643      361.80094      18559.373      19354.784     -218.78462    
   1856000   300.19735      375.73909      18534.909      19340.167      39.008057    
   1857000   304.9376       383.66839      18508.866      19328.835      244.60429    
   1858000   292.37549      371.60454      18528.057      19317.989     -121.34835    
   1859000   302.4138       365.04548      18513.056      19310.792     -219.84132    
   1860000   296.84349      363.15808      18520.473      19308.351     -150.21117    
   1861000   290.98077      373.09407      18515.35       19304.776      34.949279    
   1862000   295.933        378.02316      18507.638      19309.079      107.13062    
   1863000   296.29154      370.79482      18540.498      19335.223     -151.86899    
   1864000   312.88433      364.38673      18547.42       19359.478     -120.24818    
   1865000   325.73292      369.26765      18528.352      19363.674      0.75992388   
   1866000   329.26647      380.71165      18501.223      19353.045      237.50939    
   1867000   306.4958       374.61328      18524.584      19337.728      65.913621    
   1868000   301.75317      365.61345      18525.128      19322.486     -151.85199    
   1869000   285.89266      367.60292      18535.471      19312.126     -70.361788    
   1870000   286.73338      377.08305      18521.204      19308.542      89.501378    
   1871000   313.33293      378.70941      18481.268      19308.29       208.4606     
   1872000   301.15384      364.54636      18514.524      19309.958     -156.51029    
   1873000   289.64161      368.87308      18526.531      19309.82      -231.01408    
   1874000   290.45301      374.53459      18526.559      19316.671      42.220137    
   1875000   298.79451      379.17833      18527.624      19334.314      175.5759     
   1876000   319.37024      365.04231      18546.688      19368.682     -243.69073    
   1877000   329.13202      363.60449      18547.913      19382.436     -190.93471    
   1878000   328.98213      377.98992      18527.535      19376.229      96.629494    
   1879000   303.53388      379.64679      18548.412      19362.352      223.24332    
   1880000   314.44727      366.35714      18534.989      19351.254     -135.63863    
Loop time of 15.9135 on 48 procs for 50000 steps with 481 atoms

Performance: 13.573 ns/day, 1.768 hours/ns, 3141.992 timesteps/s, 1.511 Matom-step/s
100.0% CPU use with 48 MPI tasks x 1 OpenMP threads

MPI task timing breakdown:
Section |  min time  |  avg time  |  max time  |%varavg| %total
---------------------------------------------------------------
Pair    | 0.017492   | 0.72578    | 4.3261     | 135.0 |  4.56
Bond    | 0.0050177  | 0.91928    | 4.2937     | 148.3 |  5.78
Neigh   | 0.025082   | 0.027426   | 0.029311   |   0.7 |  0.17
Comm    | 6.238      | 11.441     | 14.296     |  89.4 | 71.90
Output  | 0.008121   | 0.013071   | 0.018059   |   2.8 |  0.08
Modify  | 0.63861    | 2.1964     | 8.5857     | 181.6 | 13.80
Other   |            | 0.5902     |            |       |  3.71

Nlocal:        10.0208 ave          49 max           0 min
Histogram: 24 8 8 0 0 0 2 3 1 2
Nghost:        1818.35 ave        2347 max        1174 min
Histogram: 8 0 0 0 24 0 0 0 0 16
Neighs:              0 ave           0 max           0 min
Histogram: 48 0 0 0 0 0 0 0 0 0

Total # of neighbors = 0
Ave neighs/atom = 0
Ave special neighs/atom = 15.567568
Neighbor list builds = 73
Dangerous builds = 0
unfix           myat1
next            cpt
jump            SELF loop
variable        zdes equal  -15+0.30*(${cpt}-1)
variable        zdes equal  -15+0.30*(32-1)
variable        zave equal xcm(H2,z)
fix             mytth2 H2 spring tether ${k1} 2.5 2.5 ${zdes} 0
fix             mytth2 H2 spring tether 0.5 2.5 2.5 ${zdes} 0
fix             mytth2 H2 spring tether 0.5 2.5 2.5 -5.7 0
run             10000
Generated 0 of 1 mixed pair_coeff terms from geometric mixing rule
Per MPI rank memory allocation (min/avg/max) = 13.32 | 13.8 | 14.98 Mbytes
   Step          Temp          E_pair         E_mol          TotEng         Press     
   1880000   314.44727      366.35714      18534.989      19351.254     -135.63863    
   1881000   309.86845      366.27277      18527.851      19337.48      -173.2493     
   1882000   290.55433      371.44401      18540.006      19327.172     -164.98826    
   1883000   298.85124      381.18562      18507.63       19316.408      130.79328    
   1884000   308.95136      375.83127      18493.389      19311.265      204.12014    
   1885000   298.51669      367.70181      18510.024      19304.841     -174.29117    
   1886000   295.43607      366.43483      18516.112      19305.253     -195.09326    
   1887000   308.88156      379.92983      18486.933      19308.808      122.75045    
   1888000   290.00874      380.65013      18525.223      19320.814      169.54852    
   1889000   307.74604      367.11535      18541.701      19349.136     -188.71882    
   1890000   321.95824      363.26241      18543.005      19366.921     -181.10286    
Loop time of 3.09563 on 48 procs for 10000 steps with 481 atoms

Performance: 13.955 ns/day, 1.720 hours/ns, 3230.357 timesteps/s, 1.554 Matom-step/s
100.0% CPU use with 48 MPI tasks x 1 OpenMP threads

MPI task timing breakdown:
Section |  min time  |  avg time  |  max time  |%varavg| %total
---------------------------------------------------------------
Pair    | 0.0035498  | 0.14523    | 0.84529    |  60.4 |  4.69
Bond    | 0.00102    | 0.18409    | 0.86929    |  66.4 |  5.95
Neigh   | 0.0056691  | 0.0062066  | 0.0066529  |   0.3 |  0.20
Comm    | 1.1497     | 2.2317     | 2.7867     |  39.5 | 72.09
Output  | 0.0016147  | 0.0025801  | 0.0035523  |   1.2 |  0.08
Modify  | 0.12657    | 0.40756    | 1.62       |  78.6 | 13.17
Other   |            | 0.1183     |            |       |  3.82

Nlocal:        10.0208 ave          46 max           0 min
Histogram: 23 11 5 1 0 0 1 1 3 3
Nghost:        1818.35 ave        2346 max        1177 min
Histogram: 8 0 0 0 24 0 0 0 0 16
Neighs:              0 ave           0 max           0 min
Histogram: 48 0 0 0 0 0 0 0 0 0

Total # of neighbors = 0
Ave neighs/atom = 0
Ave special neighs/atom = 15.567568
Neighbor list builds = 17
Dangerous builds = 0
fix             myat1 all ave/time 1000 10 10000 v_zave v_zdes file simulation_data/abpot/${cpt}.dat
fix             myat1 all ave/time 1000 10 10000 v_zave v_zdes file simulation_data/abpot/32.dat
run             50000
Generated 0 of 1 mixed pair_coeff terms from geometric mixing rule
Per MPI rank memory allocation (min/avg/max) = 13.32 | 13.8 | 14.98 Mbytes
   Step          Temp          E_pair         E_mol          TotEng         Press     
   1890000   321.95824      363.26241      18543.005      19366.921     -181.10286    
   1891000   308.71517      367.17984      18554.376      19363.262     -188.68458    
   1892000   314.35251      382.61011      18519.411      19351.793      273.08717    
   1893000   314.82409      377.19501      18508.478      19336.119      195.56141    
   1894000   307.34783      359.09604      18525.189      19324.034     -270.28542    
   1895000   297.08529      364.73092      18529.094      19318.891     -215.35198    
   1896000   300.65037      376.51154      18507.246      19313.925      71.798828    
   1897000   294.34795      379.54266      18508.272      19308.965      196.94811    
   1898000   293.05445      366.41821      18520.103      19305.821     -186.25015    
   1899000   287.01915      365.57354      18537.99       19314.227     -278.31128    
   1900000   305.80719      377.88719      18511.138      19326.571      189.96413    
   1901000   327.44551      373.61959      18502.001      19344.126      48.499034    
   1902000   312.03567      370.05052      18545.907      19362.415     -36.181607    
   1903000   315.23711      364.10554      18563.321      19378.464     -283.2665     
   1904000   321.55488      379.06936      18543.195      19382.342      75.27752     
   1905000   312.72659      384.14637      18539.297      19370.889      246.2735     
   1906000   310.73707      368.47111      18530.537      19343.607     -131.55068    
   1907000   311.44188      372.12003      18507.828      19325.556     -37.843099    
   1908000   313.74328      370.75036      18493.734      19313.384     -1.0434134    
   1909000   305.92777      371.13131      18494.081      19302.931      47.076453    
   1910000   304.90208      378.11819      18481.843      19296.212      154.70151    
   1911000   300.83954      364.55603      18500.011      19295.005     -113.7548     
   1912000   297.08072      373.02618      18507.102      19305.188      43.229246    
   1913000   298.20911      370.0823       18520.618      19317.374     -101.75669    
   1914000   302.75949      378.39554      18524.628      19336.208      116.51008    
   1915000   312.22289      373.25451      18523.963      19343.943     -109.46225    
   1916000   301.60953      368.76513      18540.961      19341.265     -118.20378    
   1917000   285.07796      380.0332       18546.226      19334.145      132.96196    
   1918000   296.15821      371.31096      18526.217      19321.268     -171.5719     
   1919000   288.84737      378.17927      18508.582      19300.041      155.08563    
   1920000   291.45283      366.1443       18506.135      19289.287     -156.52827    
   1921000   298.82828      369.27191      18487.978      19284.81      -42.798199    
   1922000   291.35245      384.98592      18485.089      19286.938      214.33072    
   1923000   296.63588      368.17475      18502.601      19295.199     -128.12833    
   1924000   286.58269      375.66283      18523.415      19309.117     -83.719064    
   1925000   307.59635      368.52381      18517.601      19326.23      -150.47513    
   1926000   311.09292      376.02801      18514.583      19335.719      67.864312    
   1927000   308.40894      377.33019      18515.04       19333.638      174.93229    
   1928000   299.95199      366.59282      18529.806      19325.567     -281.21257    
   1929000   293.50548      370.29116      18526.773      19317.009     -142.25337    
   1930000   298.33571      375.0311       18509.715      19311.601      31.678874    
   1931000   305.21666      378.51944      18489.6        19304.82       151.7783     
   1932000   293.51664      365.45509      18512.957      19298.372     -260.21481    
   1933000   291.85837      368.47813      18501.381      19287.447     -169.31924    
   1934000   291.75133      369.25909      18480.353      19267.047     -37.152053    
   1935000   275.27753      375.65955      18486.583      19256.107      91.655069    
   1936000   268.50911      374.77642      18504.974      19263.93       51.774888    
   1937000   300.05482      368.34944      18492.098      19289.763     -42.649339    
   1938000   297.70006      364.2664       18518.089      19308.301     -221.46031    
   1939000   295.34664      372.52763      18521.325      19316.431      95.220763    
   1940000   294.54908      380.37718      18518.569      19320.384      277.81996    
Loop time of 15.8801 on 48 procs for 50000 steps with 481 atoms

Performance: 13.602 ns/day, 1.764 hours/ns, 3148.591 timesteps/s, 1.514 Matom-step/s
100.0% CPU use with 48 MPI tasks x 1 OpenMP threads

MPI task timing breakdown:
Section |  min time  |  avg time  |  max time  |%varavg| %total
---------------------------------------------------------------
Pair    | 0.017599   | 0.72983    | 4.6411     | 136.8 |  4.60
Bond    | 0.0050398  | 0.92032    | 4.3362     | 148.4 |  5.80
Neigh   | 0.022681   | 0.024842   | 0.026638   |   0.7 |  0.16
Comm    | 5.989      | 11.43      | 14.237     |  89.2 | 71.97
Output  | 0.0080578  | 0.013029   | 0.017997   |   2.8 |  0.08
Modify  | 0.65168    | 2.1728     | 8.5717     | 180.2 | 13.68
Other   |            | 0.5898     |            |       |  3.71

Nlocal:        10.0208 ave          54 max           0 min
Histogram: 27 7 6 0 1 1 1 3 1 1
Nghost:        1818.35 ave        2348 max        1169 min
Histogram: 8 0 0 0 24 0 0 0 0 16
Neighs:              0 ave           0 max           0 min
Histogram: 48 0 0 0 0 0 0 0 0 0

Total # of neighbors = 0
Ave neighs/atom = 0
Ave special neighs/atom = 15.567568
Neighbor list builds = 67
Dangerous builds = 0
unfix           myat1
next            cpt
jump            SELF loop
variable        zdes equal  -15+0.30*(${cpt}-1)
variable        zdes equal  -15+0.30*(33-1)
variable        zave equal xcm(H2,z)
fix             mytth2 H2 spring tether ${k1} 2.5 2.5 ${zdes} 0
fix             mytth2 H2 spring tether 0.5 2.5 2.5 ${zdes} 0
fix             mytth2 H2 spring tether 0.5 2.5 2.5 -5.4 0
run             10000
Generated 0 of 1 mixed pair_coeff terms from geometric mixing rule
Per MPI rank memory allocation (min/avg/max) = 13.32 | 13.8 | 14.98 Mbytes
   Step          Temp          E_pair         E_mol          TotEng         Press     
   1940000   294.54908      380.37718      18518.569      19320.384      277.81996    
   1941000   296.85094      371.59305      18528.893      19325.217      25.069487    
   1942000   296.80998      365.03155      18536.968      19326.672     -140.56894    
   1943000   309.25396      368.07314      18516.602      19327.153     -155.26949    
   1944000   296.73997      382.18562      18517.26       19324.018      159.75542    
   1945000   314.2546       380.49515      18484.315      19314.443      141.49046    
   1946000   298.28976      366.53871      18507.792      19301.12      -156.6855     
   1947000   287.92784      365.31686      18510.574      19287.854     -254.65484    
   1948000   278.27689      373.23574      18510.677      19282.069     -6.9907631    
   1949000   286.07022      383.30219      18491.704      19284.312      206.02138    
   1950000   287.59406      372.2707       18513.777      19297.534      0.81483504   
Loop time of 3.13051 on 48 procs for 10000 steps with 481 atoms

Performance: 13.800 ns/day, 1.739 hours/ns, 3194.367 timesteps/s, 1.536 Matom-step/s
100.0% CPU use with 48 MPI tasks x 1 OpenMP threads

MPI task timing breakdown:
Section |  min time  |  avg time  |  max time  |%varavg| %total
---------------------------------------------------------------
Pair    | 0.0035064  | 0.1457     | 0.88809    |  60.5 |  4.65
Bond    | 0.0010011  | 0.18402    | 0.85677    |  66.2 |  5.88
Neigh   | 0.0047063  | 0.0051711  | 0.0055524  |   0.3 |  0.17
Comm    | 1.2189     | 2.2553     | 2.8259     |  40.0 | 72.04
Output  | 0.0016241  | 0.0025801  | 0.0035634  |   1.2 |  0.08
Modify  | 0.1283     | 0.41985    | 1.6947     |  80.7 | 13.41
Other   |            | 0.1179     |            |       |  3.76

Nlocal:        10.0208 ave          50 max           0 min
Histogram: 22 15 3 0 0 1 1 2 2 2
Nghost:        1818.35 ave        2347 max        1174 min
Histogram: 8 0 0 0 24 0 0 0 0 16
Neighs:              0 ave           0 max           0 min
Histogram: 48 0 0 0 0 0 0 0 0 0

Total # of neighbors = 0
Ave neighs/atom = 0
Ave special neighs/atom = 15.567568
Neighbor list builds = 14
Dangerous builds = 0
fix             myat1 all ave/time 1000 10 10000 v_zave v_zdes file simulation_data/abpot/${cpt}.dat
fix             myat1 all ave/time 1000 10 10000 v_zave v_zdes file simulation_data/abpot/33.dat
run             50000
Generated 0 of 1 mixed pair_coeff terms from geometric mixing rule
Per MPI rank memory allocation (min/avg/max) = 13.32 | 13.8 | 14.98 Mbytes
   Step          Temp          E_pair         E_mol          TotEng         Press     
   1950000   287.59406      372.2707       18513.777      19297.534      0.81483504   
   1951000   311.40339      367.8059       18510.191      19323.55      -175.16816    
   1952000   316.10004      376.36836      18510.004      19338.644      62.294967    
   1953000   297.17211      378.64029      18531.886      19335.717      113.16111    
   1954000   311.08276      365.32468      18522.794      19333.212     -190.82915    
   1955000   305.18068      369.46425      18525.889      19332.003     -103.50144    
   1956000   296.10594      368.98225      18531.704      19324.351     -132.62107    
   1957000   286.62103      373.54963      18525.759      19309.403     -15.440202    
   1958000   295.15024      375.60788      18497.013      19294.918      86.750551    
   1959000   293.02696      367.00057      18497.944      19284.205     -135.33306    
   1960000   289.77281      364.00358      18499.524      19278.131     -180.4639     
   1961000   279.27572      374.35267      18502.568      19276.506      66.102458    
   1962000   285.06325      375.51005      18511.759      19295.134      75.495894    
   1963000   309.04068      375.85139      18502.333      19320.356      11.689891    
   1964000   299.68233      356.01276      18548.054      19332.849     -418.04169    
   1965000   293.87049      373.53623      18541.067      19335.07      -108.46833    
   1966000   302.46104      381.21696      18523.397      19337.371      161.83335    
   1967000   323.62965      379.00296      18495.599      19337.648      145.37544    
   1968000   294.93091      365.63865      18542.584      19330.206     -220.00272    
   1969000   286.42429      358.26352      18546.022      19314.099     -368.89734    
   1970000   293.43922      375.55821      18504.472      19299.88       8.3351994    
   1971000   275.49028      384.49993      18509.921      19288.589      295.76843    
   1972000   300.23222      369.62083      18486.374      19285.563     -4.7697302    
   1973000   288.00354      363.96048      18517.861      19293.894     -268.78055    
   1974000   303.49475      365.88262      18522.307      19322.426     -117.79099    
   1975000   325.3231       384.42779      18496.431      19346.328      375.83611    
   1976000   323.62008      379.96153      18507.98       19350.973      122.41722    
   1977000   306.28078      364.67047      18544.6        19347.493     -332.19193    
   1978000   314.26822      372.15393      18517.117      19338.922     -93.723058    
   1979000   326.17294      376.05587      18482.929      19325.669      211.76699    
   1980000   296.40635      377.84611      18509.098      19311.039      16.762139    
   1981000   297.6762       371.11764      18508.59       19305.619     -12.463799    
   1982000   298.20803      364.73915      18505.303      19296.715     -197.65373    
   1983000   292.26795      375.06862      18497.528      19290.77       159.24013    
   1984000   282.6289       376.13609      18510.376      19290.894      108.55608    
   1985000   298.4388       375.20271      18510.58       19312.785      107.86377    
   1986000   299.75424      362.70673      18551.905      19343.496     -374.46707    
   1987000   314.576        371.62807      18531.489      19353.209      68.813071    
   1988000   314.302        382.14279      18512.614      19344.457      249.00859    
   1989000   316.76597      374.63959      18508.305      19336.169      164.73369    
   1990000   301.13176      365.97968      18527.835      19324.671     -204.01071    
   1991000   304.10914      361.1757       18516.942      19313.234     -327.26045    
   1992000   298.24346      382.21967      18498.691      19307.634      66.840991    
   1993000   293.03721      379.37737      18502.955      19301.607      87.737621    
   1994000   289.93162      369.42374      18513.79       19298.045     -52.67461     
   1995000   294.68435      357.67309      18523.923      19303.228     -422.52575    
   1996000   296.27989      370.20458      18521.206      19315.325     -33.295811    
   1997000   326.24079      388.54634      18491.265      19346.593      333.72507    
   1998000   325.59277      368.83584      18532.359      19367.049     -151.88781    
   1999000   327.9453       367.99488      18526.858      19364.073     -215.79277    
   2000000   303.24123      367.57734      18551.666      19353.117     -138.80937    
Loop time of 16.4946 on 48 procs for 50000 steps with 481 atoms

Performance: 13.095 ns/day, 1.833 hours/ns, 3031.298 timesteps/s, 1.458 Matom-step/s
100.0% CPU use with 48 MPI tasks x 1 OpenMP threads

MPI task timing breakdown:
Section |  min time  |  avg time  |  max time  |%varavg| %total
---------------------------------------------------------------
Pair    | 0.017402   | 0.72739    | 4.4572     | 136.1 |  4.41
Bond    | 0.0050369  | 0.92067    | 4.5275     | 148.7 |  5.58
Neigh   | 0.033123   | 0.0362     | 0.038691   |   0.8 |  0.22
Comm    | 6.4033     | 11.923     | 14.827     |  91.9 | 72.28
Output  | 0.0081986  | 0.013208   | 0.018116   |   2.7 |  0.08
Modify  | 0.65136    | 2.2842     | 9.0677     | 191.0 | 13.85
Other   |            | 0.59       |            |       |  3.58

Nlocal:        10.0208 ave          50 max           0 min
Histogram: 22 12 6 0 0 0 1 4 2 1
Nghost:        1818.35 ave        2347 max        1174 min
Histogram: 8 0 0 0 24 0 0 0 0 16
Neighs:              0 ave           0 max           0 min
Histogram: 48 0 0 0 0 0 0 0 0 0

Total # of neighbors = 0
Ave neighs/atom = 0
Ave special neighs/atom = 15.567568
Neighbor list builds = 94
Dangerous builds = 0
unfix           myat1
next            cpt
jump            SELF loop
variable        zdes equal  -15+0.30*(${cpt}-1)
variable        zdes equal  -15+0.30*(34-1)
variable        zave equal xcm(H2,z)
fix             mytth2 H2 spring tether ${k1} 2.5 2.5 ${zdes} 0
fix             mytth2 H2 spring tether 0.5 2.5 2.5 ${zdes} 0
fix             mytth2 H2 spring tether 0.5 2.5 2.5 -5.1 0
run             10000
Generated 0 of 1 mixed pair_coeff terms from geometric mixing rule
Per MPI rank memory allocation (min/avg/max) = 13.32 | 13.8 | 14.98 Mbytes
   Step          Temp          E_pair         E_mol          TotEng         Press     
   2000000   303.24123      367.57734      18551.666      19353.117     -138.80937    
   2001000   308.37906      375.34525      18519.595      19336.166      57.049334    
   2002000   303.1073       378.92438      18507.529      19320.136      242.66544    
   2003000   283.2678       366.34759      18540.224      19311.868     -148.86548    
   2004000   299.59702      364.62345      18514.519      19307.803     -163.33803    
   2005000   294.04025      374.5006       18512.064      19307.274      34.443698    
   2006000   301.72938      374.54427      18503.056      19309.312      113.27695    
   2007000   280.08648      372.00065      18544.404      19317.15      -135.052      
   2008000   303.80972      370.28938      18529.447      19334.424     -84.424017    
   2009000   324.98772      372.65712      18515.87       19353.516      54.322329    
   2010000   305.59524      374.63695      18548.74       19360.619      27.131781    
Loop time of 3.16445 on 48 procs for 10000 steps with 481 atoms

Performance: 13.652 ns/day, 1.758 hours/ns, 3160.108 timesteps/s, 1.520 Matom-step/s
100.0% CPU use with 48 MPI tasks x 1 OpenMP threads

MPI task timing breakdown:
Section |  min time  |  avg time  |  max time  |%varavg| %total
---------------------------------------------------------------
Pair    | 0.0035152  | 0.14585    | 0.8926     |  60.2 |  4.61
Bond    | 0.0010027  | 0.18416    | 0.88064    |  66.2 |  5.82
Neigh   | 0.0042025  | 0.0046497  | 0.0049935  |   0.3 |  0.15
Comm    | 1.2911     | 2.2794     | 2.8552     |  39.8 | 72.03
Output  | 0.0016238  | 0.0025753  | 0.0035523  |   1.2 |  0.08
Modify  | 0.12763    | 0.42972    | 1.6898     |  80.7 | 13.58
Other   |            | 0.1181     |            |       |  3.73

Nlocal:        10.0208 ave          52 max           0 min
Histogram: 23 13 4 0 0 2 2 1 1 2
Nghost:        1818.35 ave        2347 max        1171 min
Histogram: 8 0 0 0 24 0 0 0 0 16
Neighs:              0 ave           0 max           0 min
Histogram: 48 0 0 0 0 0 0 0 0 0

Total # of neighbors = 0
Ave neighs/atom = 0
Ave special neighs/atom = 15.567568
Neighbor list builds = 13
Dangerous builds = 0
fix             myat1 all ave/time 1000 10 10000 v_zave v_zdes file simulation_data/abpot/${cpt}.dat
fix             myat1 all ave/time 1000 10 10000 v_zave v_zdes file simulation_data/abpot/34.dat
run             50000
Generated 0 of 1 mixed pair_coeff terms from geometric mixing rule
Per MPI rank memory allocation (min/avg/max) = 13.32 | 13.8 | 14.98 Mbytes
   Step          Temp          E_pair         E_mol          TotEng         Press     
   2010000   305.59524      374.63695      18548.74       19360.619      27.131781    
   2011000   310.6454       375.2548       18543.641      19363.364      149.81951    
   2012000   319.62271      365.188        18535.315      19357.816     -65.172456    
   2013000   293.08568      362.99675      18558.435      19340.776     -280.50484    
   2014000   294.40676      376.43895      18529.306      19326.979      172.17711    
   2015000   284.69336      380.79384      18536.537      19324.667      141.34118    
   2016000   297.00429      366.62065      18532.243      19323.814     -135.89515    
   2017000   291.92939      367.53996      18539.954      19325.183     -45.793094    
   2018000   314.67181      366.35845      18507.967      19324.554     -132.9251     
   2019000   294.5201       375.76816      18523.093      19320.257      109.74203    
   2020000   298.0485       375.83137      18512.627      19314.902      121.12109    
   2021000   303.70702      362.62462      18509.376      19306.541     -195.90856    
   2022000   290.65133      367.49599      18519.019      19302.375     -103.03429    
   2023000   277.74061      375.3845       18525.505      19298.278      38.572976    
   2024000   305.83771      374.53022      18487.485      19299.604      96.784952    
   2025000   309.30826      370.19675      18491.622      19304.374      70.255785    
   2026000   299.54413      364.11966      18520.922      19313.626     -214.65056    
   2027000   305.50082      372.5702       18519.154      19328.831      48.913355    
   2028000   312.99142      382.61367      18512.25       19342.688      325.81752    
   2029000   315.22696      371.16788      18528.585      19350.776     -81.164719    
   2030000   305.88383      370.48054      18545.503      19353.639     -183.7774     
   2031000   297.39784      364.68158      18554.578      19344.773     -217.11775    
   2032000   288.68266      372.878        18536.727      19322.649      43.233018    
   2033000   289.53761      375.75699      18514.205      19304.229      76.105455    
   2034000   295.71784      369.37903      18502.968      19295.457      7.9668572    
   2035000   287.82033      366.29845      18520.832      19298.941     -52.034426    
   2036000   288.89619      368.67724      18522.351      19304.378     -100.96488    
   2037000   293.67003      373.90505      18519.035      19313.119      50.819329    
   2038000   307.31574      370.72185      18509.745      19320.171      116.28937    
   2039000   297.80314      362.98394      18536.143      19325.22      -284.34989    
   2040000   312.18206      373.64681      18513.275      19333.588      3.0871765    
   2041000   310.84411      375.59292      18521.057      19341.402      110.77879    
   2042000   312.78158      369.63257      18529.467      19346.624     -64.76412     
   2043000   321.23632      365.27111      18523.998      19348.891     -183.97756    
   2044000   317.67047      373.38398      18519.072      19346.975     -71.724874    
   2045000   299.16345      381.2287       18524.109      19333.378      149.77304    
   2046000   297.24669      374.6043       18514.499      19314.4        94.927421    
   2047000   287.61014      368.40248      18522.191      19302.103     -212.27756    
   2048000   287.22722      371.18106      18518.33       19300.473     -20.079458    
   2049000   286.94512      372.72596      18518.592      19301.876      108.99237    
   2050000   291.29535      378.87248      18512.283      19307.938      101.9084     
   2051000   297.73656      365.48132      18530.127      19321.606     -149.23719    
   2052000   307.77723      368.09802      18534.07       19342.532     -115.15558    
   2053000   312.56947      379.85477      18525.686      19352.762      132.32725    
   2054000   324.75182      370.25134      18515.914      19350.817     -63.459448    
   2055000   313.89226      374.0186       18521.173      19344.306      49.131606    
   2056000   304.24997      372.34009      18533.99       19341.648     -6.8673751    
   2057000   302.31149      370.9518       18530.321      19333.817     -22.188529    
   2058000   298.21049      377.51826      18520.365      19324.56       153.64901    
   2059000   303.10132      372.96763      18514.284      19320.926     -37.934595    
   2060000   308.84396      369.89296      18508.631      19320.415     -19.643373    
Loop time of 16.0514 on 48 procs for 50000 steps with 481 atoms

Performance: 13.457 ns/day, 1.783 hours/ns, 3114.985 timesteps/s, 1.498 Matom-step/s
100.0% CPU use with 48 MPI tasks x 1 OpenMP threads

MPI task timing breakdown:
Section |  min time  |  avg time  |  max time  |%varavg| %total
---------------------------------------------------------------
Pair    | 0.017325   | 0.72834    | 4.6364     | 136.4 |  4.54
Bond    | 0.0050228  | 0.92072    | 4.3772     | 148.5 |  5.74
Neigh   | 0.028599   | 0.031351   | 0.033561   |   0.8 |  0.20
Comm    | 6.1708     | 11.567     | 14.519     |  90.1 | 72.06
Output  | 0.0080365  | 0.012893   | 0.017773   |   2.7 |  0.08
Modify  | 0.65432    | 2.2019     | 8.6336     | 183.6 | 13.72
Other   |            | 0.5894     |            |       |  3.67

Nlocal:        10.0208 ave          52 max           0 min
Histogram: 24 13 3 0 0 4 0 0 1 3
Nghost:        1818.35 ave        2348 max        1171 min
Histogram: 8 0 0 0 24 0 0 0 0 16
Neighs:              0 ave           0 max           0 min
Histogram: 48 0 0 0 0 0 0 0 0 0

Total # of neighbors = 0
Ave neighs/atom = 0
Ave special neighs/atom = 15.567568
Neighbor list builds = 84
Dangerous builds = 0
unfix           myat1
next            cpt
jump            SELF loop
variable        zdes equal  -15+0.30*(${cpt}-1)
variable        zdes equal  -15+0.30*(35-1)
variable        zave equal xcm(H2,z)
fix             mytth2 H2 spring tether ${k1} 2.5 2.5 ${zdes} 0
fix             mytth2 H2 spring tether 0.5 2.5 2.5 ${zdes} 0
fix             mytth2 H2 spring tether 0.5 2.5 2.5 -4.8 0
run             10000
Generated 0 of 1 mixed pair_coeff terms from geometric mixing rule
Per MPI rank memory allocation (min/avg/max) = 13.32 | 13.8 | 14.98 Mbytes
   Step          Temp          E_pair         E_mol          TotEng         Press     
   2060000   308.84396      369.89296      18508.631      19320.415     -19.643373    
   2061000   294.41166      368.82742      18526.285      19316.354     -138.70159    
   2062000   307.26598      372.68681      18500.248      19312.567      46.869271    
   2063000   313.36213      372.8573       18496.006      19317.218      57.813167    
   2064000   316.14318      367.92227      18524.202      19344.458     -7.048745     
   2065000   312.14079      366.90958      18553.578      19367.095     -101.62569    
   2066000   298.53935      373.22395      18571.197      19371.568     -85.699107    
   2067000   311.03132      378.02866      18537.452      19360.501      130.63767    
   2068000   319.35952      374.50813      18511.464      19342.909      32.652963    
   2069000   311.71782      363.45287      18515.285      19324.741     -207.43832    
   2070000   307.41295      368.78881      18506.827      19315.459     -26.547825    
Loop time of 3.31168 on 48 procs for 10000 steps with 481 atoms

Performance: 13.045 ns/day, 1.840 hours/ns, 3019.614 timesteps/s, 1.452 Matom-step/s
100.0% CPU use with 48 MPI tasks x 1 OpenMP threads

MPI task timing breakdown:
Section |  min time  |  avg time  |  max time  |%varavg| %total
---------------------------------------------------------------
Pair    | 0.0034698  | 0.14563    | 0.92112    |  61.8 |  4.40
Bond    | 0.0010046  | 0.18434    | 0.93932    |  66.7 |  5.57
Neigh   | 0.0049557  | 0.0054302  | 0.0058291  |   0.3 |  0.16
Comm    | 1.2521     | 2.4141     | 3.0134     |  41.4 | 72.90
Output  | 0.0016434  | 0.0026203  | 0.0036176  |   1.2 |  0.08
Modify  | 0.12547    | 0.44189    | 1.8275     |  87.1 | 13.34
Other   |            | 0.1177     |            |       |  3.55

Nlocal:        10.0208 ave          53 max           0 min
Histogram: 22 16 2 0 2 1 1 1 0 3
Nghost:        1818.35 ave        2347 max        1170 min
Histogram: 8 0 0 0 24 0 0 0 0 16
Neighs:              0 ave           0 max           0 min
Histogram: 48 0 0 0 0 0 0 0 0 0

Total # of neighbors = 0
Ave neighs/atom = 0
Ave special neighs/atom = 15.567568
Neighbor list builds = 14
Dangerous builds = 0
fix             myat1 all ave/time 1000 10 10000 v_zave v_zdes file simulation_data/abpot/${cpt}.dat
fix             myat1 all ave/time 1000 10 10000 v_zave v_zdes file simulation_data/abpot/35.dat
run             50000
Generated 0 of 1 mixed pair_coeff terms from geometric mixing rule
Per MPI rank memory allocation (min/avg/max) = 13.32 | 13.8 | 14.98 Mbytes
   Step          Temp          E_pair         E_mol          TotEng         Press     
   2070000   307.41295      368.78881      18506.827      19315.459     -26.547825    
   2071000   307.0435       375.22936      18498.667      19313.211      14.280097    
   2072000   280.77345      377.8869       18529.787      19309.401      124.44501    
   2073000   293.5746       366.58074      18523.08       19309.704     -213.58067    
   2074000   288.2317       362.69457      18534.64       19309.733     -258.96367    
   2075000   307.70629      370.58737      18505.281      19316.131     -4.5533961    
   2076000   301.39427      383.52695      18520.923      19335.681      341.44986    
   2077000   314.07306      378.73496      18533.634      19361.742      16.657055    
   2078000   315.27997      361.98806      18555.944      19369.031     -369.06562    
   2079000   324.92258      365.86921      18527.468      19358.233     -256.52217    
   2080000   307.30627      376.45162      18524.366      19340.508      176.1618     
   2081000   306.57137      377.64541      18510.395      19326.679      137.61141    
   2082000   301.21844      368.30588      18521.689      19320.975     -61.928567    
   2083000   297.06342      363.59692      18528.156      19316.788     -228.19376    
   2084000   311.88926      378.5507       18490.572      19315.37       244.51512    
   2085000   289.04996      377.30352      18523.75       19314.623      57.851091    
   2086000   291.84288      377.40868      18519.976      19314.95      -66.312636    
   2087000   303.37314      366.35651      18515.682      19316.101     -291.63652    
   2088000   294.33655      379.07373      18530.17       19330.377      70.835307    
   2089000   307.03687      386.19853      18526.631      19352.135      320.97739    
   2090000   318.47122      372.15347      18539.417      19367.236      106.49046    
   2091000   325.16612      369.14508      18534.971      19369.36      -173.78233    
   2092000   325.57079      367.19871      18521.122      19354.144     -190.76277    
   2093000   318.11145      377.39436      18501.229      19333.774      84.188611    
   2094000   298.31074      387.67269      18507.185      19321.677      316.73273    
   2095000   298.80824      359.53385      18531.752      19318.817     -292.6925     
   2096000   307.18862      365.86254      18514.165      19319.549     -169.6904     
   2097000   301.98619      373.71039      18515.396      19321.185      38.314042    
   2098000   288.39995      382.56246      18521.886      19317.088      254.61757    
   2099000   292.74804      372.57621      18523.296      19314.733     -32.917046    
   2100000   291.34408      356.8211       18542.406      19316.079     -375.21041    
   2101000   301.19701      366.60916      18536.296      19333.855     -91.109915    
   2102000   309.37728      383.83887      18527.168      19353.66       207.33384    
   2103000   300.52682      380.62473      18555.535      19366.15       166.35881    
   2104000   303.72971      362.86914      18565.241      19362.684     -223.13192    
   2105000   298.36907      360.80261      18554.985      19342.691     -279.63319    
   2106000   291.78857      382.84732      18522.061      19322.396      205.34338    
   2107000   296.65925      379.20705      18512.103      19315.766      180.16478    
   2108000   310.43067      366.95057      18503.23       19314.341     -126.86438    
   2109000   307.93399      361.98811      18512.495      19315.072     -185.29046    
   2110000   288.83024      367.21789      18531.32       19311.793     -188.38315    
   2111000   279.91213      378.90616      18531.185      19310.586      217.22585    
   2112000   284.26223      373.42793      18533.441      19313.588      69.211004    
   2113000   290.9999       364.83291      18546.868      19328.06      -234.18267    
   2114000   314.44309      372.56863      18529.513      19351.983      54.988798    
   2115000   316.23191      376.73655      18535.126      19364.324      59.44818     
   2116000   320.04243      372.41489      18535.063      19365.391      139.58935    
   2117000   317.4274       371.8356       18532.276      19358.284     -14.595469    
   2118000   297.34044      369.03282      18534.757      19329.221     -88.911499    
   2119000   297.18016      372.24497      18509.06       19306.507     -15.983873    
   2120000   292.14476      383.06783      18501.646      19302.711      196.86556    
Loop time of 16.3808 on 48 procs for 50000 steps with 481 atoms

Performance: 13.186 ns/day, 1.820 hours/ns, 3052.359 timesteps/s, 1.468 Matom-step/s
100.0% CPU use with 48 MPI tasks x 1 OpenMP threads

MPI task timing breakdown:
Section |  min time  |  avg time  |  max time  |%varavg| %total
---------------------------------------------------------------
Pair    | 0.017207   | 0.72804    | 4.5034     | 137.3 |  4.44
Bond    | 0.005023   | 0.92149    | 4.5847     | 149.1 |  5.63
Neigh   | 0.035854   | 0.039157   | 0.041905   |   0.8 |  0.24
Comm    | 6.0079     | 11.864     | 14.864     |  91.2 | 72.43
Output  | 0.0081216  | 0.013205   | 0.019313   |   2.9 |  0.08
Modify  | 0.64234    | 2.2252     | 8.9749     | 188.8 | 13.58
Other   |            | 0.5897     |            |       |  3.60

Nlocal:        10.0208 ave          50 max           0 min
Histogram: 21 15 4 0 1 0 2 0 3 2
Nghost:        1818.35 ave        2348 max        1177 min
Histogram: 8 0 0 0 24 0 0 0 0 16
Neighs:              0 ave           0 max           0 min
Histogram: 48 0 0 0 0 0 0 0 0 0

Total # of neighbors = 0
Ave neighs/atom = 0
Ave special neighs/atom = 15.567568
Neighbor list builds = 101
Dangerous builds = 0
unfix           myat1
next            cpt
jump            SELF loop
variable        zdes equal  -15+0.30*(${cpt}-1)
variable        zdes equal  -15+0.30*(36-1)
variable        zave equal xcm(H2,z)
fix             mytth2 H2 spring tether ${k1} 2.5 2.5 ${zdes} 0
fix             mytth2 H2 spring tether 0.5 2.5 2.5 ${zdes} 0
fix             mytth2 H2 spring tether 0.5 2.5 2.5 -4.5 0
run             10000
Generated 0 of 1 mixed pair_coeff terms from geometric mixing rule
Per MPI rank memory allocation (min/avg/max) = 13.32 | 13.8 | 14.98 Mbytes
   Step          Temp          E_pair         E_mol          TotEng         Press     
   2120000   292.14476      383.06783      18501.646      19302.711      196.86556    
   2121000   288.28412      372.15696      18521.711      19306.341      72.911064    
   2122000   294.23184      365.05882      18526.498      19312.54      -289.66487    
   2123000   298.92678      365.11676      18522.895      19315.712     -131.7011     
   2124000   300.35075      386.06382      18507.873      19323.676      310.58521    
   2125000   304.86785      374.45181      18529.278      19339.932     -8.410927     
   2126000   313.02104      364.62306      18535.413      19347.904     -229.19294    
   2127000   293.31239      364.36884      18571.469      19355.506     -217.33571    
   2128000   305.26663      377.84296      18544.197      19358.812      185.96465    
   2129000   312.91271      376.92984      18517.124      19341.765      89.51317     
   2130000   298.85274      376.36929      18507.259      19311.224     -6.4882326    
Loop time of 3.42657 on 48 procs for 10000 steps with 481 atoms

Performance: 12.607 ns/day, 1.904 hours/ns, 2918.370 timesteps/s, 1.404 Matom-step/s
100.0% CPU use with 48 MPI tasks x 1 OpenMP threads

MPI task timing breakdown:
Section |  min time  |  avg time  |  max time  |%varavg| %total
---------------------------------------------------------------
Pair    | 0.003463   | 0.14598    | 0.97155    |  62.5 |  4.26
Bond    | 0.0010165  | 0.18417    | 0.96795    |  67.2 |  5.37
Neigh   | 0.0034816  | 0.0038245  | 0.0041265  |   0.3 |  0.11
Comm    | 1.2567     | 2.4872     | 3.1235     |  42.4 | 72.58
Output  | 0.0016431  | 0.0026206  | 0.0036264  |   1.2 |  0.08
Modify  | 0.13094    | 0.48502    | 1.954      |  89.6 | 14.15
Other   |            | 0.1178     |            |       |  3.44

Nlocal:        10.0208 ave          41 max           0 min
Histogram: 23 8 7 2 0 0 0 0 1 7
Nghost:        1818.35 ave        2347 max        1183 min
Histogram: 8 0 0 0 24 0 0 0 0 16
Neighs:              0 ave           0 max           0 min
Histogram: 48 0 0 0 0 0 0 0 0 0

Total # of neighbors = 0
Ave neighs/atom = 0
Ave special neighs/atom = 15.567568
Neighbor list builds = 10
Dangerous builds = 0
fix             myat1 all ave/time 1000 10 10000 v_zave v_zdes file simulation_data/abpot/${cpt}.dat
fix             myat1 all ave/time 1000 10 10000 v_zave v_zdes file simulation_data/abpot/36.dat
run             50000
Generated 0 of 1 mixed pair_coeff terms from geometric mixing rule
Per MPI rank memory allocation (min/avg/max) = 13.32 | 13.8 | 14.98 Mbytes
   Step          Temp          E_pair         E_mol          TotEng         Press     
   2130000   298.85274      376.36929      18507.259      19311.224     -6.4882326    
   2131000   288.07686      364.05483      18519.676      19295.908     -234.35784    
   2132000   286.57749      369.66295      18516.215      19295.91      -10.705964    
   2133000   298.60927      384.44251      18490.968      19302.657      245.28314    
   2134000   279.01948      370.66477      18541.854      19311.737     -110.7928     
   2135000   309.71787      374.57789      18504.567      19322.286     -72.255216    
   2136000   305.35095      364.95659      18530.697      19332.547     -89.339268    
   2137000   313.28301      367.22445      18526.464      19341.931     -116.8432     
   2138000   317.26912      379.72688      18517.231      19350.903      257.05224    
   2139000   301.46562      368.97482      18557.256      19357.565     -232.00306    
   2140000   308.45438      364.28415      18537.627      19343.245     -176.39008    
   2141000   302.48415      369.34889      18504.68       19306.82      -121.43438    
   2142000   280.5094       371.76528      18516.56       19289.675     -11.066362    
   2143000   282.95572      377.92318      18509.522      19292.295      116.45659    
   2144000   281.88424      362.46431      18535.762      19301.543     -252.30109    
   2145000   317.76182      367.24002      18492.248      19314.138     -108.95154    
   2146000   304.42719      372.64484      18517.193      19325.409     -51.888796    
   2147000   320.52177      381.86148      18495.746      19336.206      279.0128     
   2148000   315.6895       370.62366      18525.387      19347.696      52.853832    
   2149000   305.97253      356.98157      18555.004      19349.768     -424.9773     
   2150000   304.48153      375.71229      18539.4        19350.761      69.917022    
   2151000   288.30139      383.47281      18543.012      19338.984      183.29073    
   2152000   288.87362      373.40212      18524.423      19311.142      133.76438    
   2153000   281.3058       362.6599       18526.261      19291.41      -325.90597    
   2154000   286.78311      365.44685      18517.708      19293.48      -143.7499     
   2155000   284.81155      381.81409      18509.009      19298.328      225.44761    
   2156000   300.31092      377.72844      18502.236      19309.646      175.86228    
   2157000   304.33401      362.79305      18523.802      19322.032     -141.70419    
   2158000   298.91075      363.27264      18544.218      19335.169     -227.63868    
   2159000   303.24609      374.71023      18530.3        19338.892      1.6913433    
   2160000   291.27593      378.41988      18544.888      19340.062      57.208343    
   2161000   299.4535       376.70819      18532.986      19338.149      89.624869    
   2162000   295.82452      365.16929      18544.882      19333.314     -238.67386    
   2163000   302.53736      363.85579      18525.032      19321.755     -225.46167    
   2164000   298.22245      378.67262      18496.659      19302.025      156.43814    
   2165000   286.79191      377.53599      18491.314      19279.189      316.30178    
   2166000   285.81864      369.22004      18495.186      19273.352     -181.1356     
   2167000   282.95012      363.22807      18509.16       19277.23      -78.640315    
   2168000   296.54747      375.49845      18488.841      19288.636      102.58629    
   2169000   291.43994      380.32922      18506.415      19303.733      164.8671     
   2170000   294.07354      372.21809      18522.683      19315.658      20.956213    
   2171000   295.48125      362.4061       18533.165      19318.343     -307.4595     
   2172000   295.46823      369.43764      18525.992      19318.182      97.120651    
   2173000   293.39614      381.51795      18518.919      19320.225      260.66829    
   2174000   300.19457      379.27395      18522.145      19330.934      184.3029     
   2175000   315.5181       359.98664      18529.603      19341.029     -334.38578    
   2176000   319.38433      367.35209      18525.997      19350.321     -127.12785    
   2177000   314.62334      381.34181      18519.544      19351.045      284.27086    
   2178000   329.56099      371.55796      18502.581      19345.671      92.663766    
   2179000   307.96186      364.99422      18530.669      19336.292     -107.25169    
   2180000   309.55527      363.74601      18517.145      19323.8       -90.575283    
Loop time of 16.6352 on 48 procs for 50000 steps with 481 atoms

Performance: 12.984 ns/day, 1.848 hours/ns, 3005.667 timesteps/s, 1.446 Matom-step/s
100.0% CPU use with 48 MPI tasks x 1 OpenMP threads

MPI task timing breakdown:
Section |  min time  |  avg time  |  max time  |%varavg| %total
---------------------------------------------------------------
Pair    | 0.017489   | 0.72785    | 4.7544     | 137.7 |  4.38
Bond    | 0.0050253  | 0.92082    | 4.4615     | 148.5 |  5.54
Neigh   | 0.021489   | 0.023612   | 0.025334   |   0.7 |  0.14
Comm    | 6.3925     | 12.129     | 15.113     |  93.8 | 72.91
Output  | 0.008286   | 0.013248   | 0.018339   |   2.7 |  0.08
Modify  | 0.65858    | 2.2317     | 9.3183     | 198.1 | 13.42
Other   |            | 0.5892     |            |       |  3.54

Nlocal:        10.0208 ave          51 max           0 min
Histogram: 24 10 6 0 0 2 0 3 1 2
Nghost:        1818.35 ave        2348 max        1172 min
Histogram: 8 0 0 0 24 0 0 0 0 16
Neighs:              0 ave           0 max           0 min
Histogram: 48 0 0 0 0 0 0 0 0 0

Total # of neighbors = 0
Ave neighs/atom = 0
Ave special neighs/atom = 15.567568
Neighbor list builds = 62
Dangerous builds = 0
unfix           myat1
next            cpt
jump            SELF loop
variable        zdes equal  -15+0.30*(${cpt}-1)
variable        zdes equal  -15+0.30*(37-1)
variable        zave equal xcm(H2,z)
fix             mytth2 H2 spring tether ${k1} 2.5 2.5 ${zdes} 0
fix             mytth2 H2 spring tether 0.5 2.5 2.5 ${zdes} 0
fix             mytth2 H2 spring tether 0.5 2.5 2.5 -4.2 0
run             10000
Generated 0 of 1 mixed pair_coeff terms from geometric mixing rule
Per MPI rank memory allocation (min/avg/max) = 13.32 | 13.8 | 14.98 Mbytes
   Step          Temp          E_pair         E_mol          TotEng         Press     
   2180000   309.55527      363.74601      18517.145      19323.8       -90.575283    
   2181000   295.52426      374.19107      18514.698      19311.722      102.7964     
   2182000   293.19157      376.35813      18505.712      19301.566      71.846485    
   2183000   281.69412      365.51743      18526.793      19295.355      2.733472     
   2184000   294.49576      364.58007      18507.097      19293.038     -242.21341    
   2185000   295.91551      367.32749      18507.074      19297.794     -34.164132    
   2186000   308.74878      388.04309      18487.373      19317.17       414.37858    
   2187000   328.94157      365.15974      18506.998      19342.804     -152.61731    
   2188000   292.53438      365.51112      18568.937      19353.003     -166.18034    
   2189000   306.46609      368.92768      18543.457      19350.873     -167.46948    
   2190000   291.21386      371.33684      18549.961      19337.963     -163.78559    
Loop time of 3.28649 on 48 procs for 10000 steps with 481 atoms

Performance: 13.145 ns/day, 1.826 hours/ns, 3042.761 timesteps/s, 1.464 Matom-step/s
100.0% CPU use with 48 MPI tasks x 1 OpenMP threads

MPI task timing breakdown:
Section |  min time  |  avg time  |  max time  |%varavg| %total
---------------------------------------------------------------
Pair    | 0.0034788  | 0.14556    | 0.94576    |  61.4 |  4.43
Bond    | 0.0010023  | 0.1842     | 0.92012    |  66.5 |  5.60
Neigh   | 0.0048792  | 0.0053378  | 0.0057061  |   0.3 |  0.16
Comm    | 1.1987     | 2.3921     | 2.9836     |  41.4 | 72.79
Output  | 0.0016493  | 0.0026418  | 0.003679   |   1.2 |  0.08
Modify  | 0.13134    | 0.43908    | 1.8013     |  86.7 | 13.36
Other   |            | 0.1176     |            |       |  3.58

Nlocal:        10.0208 ave          49 max           0 min
Histogram: 22 11 7 0 0 0 3 1 3 1
Nghost:        1818.35 ave        2347 max        1174 min
Histogram: 8 0 0 0 24 0 0 0 0 16
Neighs:              0 ave           0 max           0 min
Histogram: 48 0 0 0 0 0 0 0 0 0

Total # of neighbors = 0
Ave neighs/atom = 0
Ave special neighs/atom = 15.567568
Neighbor list builds = 14
Dangerous builds = 0
fix             myat1 all ave/time 1000 10 10000 v_zave v_zdes file simulation_data/abpot/${cpt}.dat
fix             myat1 all ave/time 1000 10 10000 v_zave v_zdes file simulation_data/abpot/37.dat
run             50000
Generated 0 of 1 mixed pair_coeff terms from geometric mixing rule
Per MPI rank memory allocation (min/avg/max) = 13.32 | 13.8 | 14.98 Mbytes
   Step          Temp          E_pair         E_mol          TotEng         Press     
   2190000   291.21386      371.33684      18549.961      19337.963     -163.78559    
   2191000   312.36505      380.32459      18501.146      19328.399      212.09175    
   2192000   297.44126      371.48246      18520.361      19317.419     -73.679541    
   2193000   316.92414      359.43553      18497.607      19310.494     -220.4834     
   2194000   304.94286      370.91282      18498.669      19305.891      46.233636    
   2195000   291.11362      376.53339      18509.851      19302.907      36.27482     
   2196000   295.83961      373.76598      18509.458      19306.508     -45.430632    
   2197000   300.5597       363.13949      18520.328      19313.504     -312.79157    
   2198000   311.51331      365.77868      18529.46       19340.949     -120.51255    
   2199000   301.7368       386.41736      18543.667      19361.806      184.76988    
   2200000   319.55059      380.19499      18531.683      19369.087      199.88017    
   2201000   297.86841      369.43049      18566.344      19361.961     -176.50542    
   2202000   303.00614      361.38586      18550.531      19345.454     -335.72354    
   2203000   308.29531      376.66608      18504.632      19322.403      56.070073    
   2204000   292.09666      382.09159      18511.482      19311.502      232.41157    
   2205000   296.6882       367.90321      18518.686      19311.088     -125.33813    
   2206000   303.46169      369.22612      18509.845      19313.26      -55.190433    
   2207000   293.27474      363.27898      18534.032      19316.925     -218.04694    
   2208000   304.11441      377.88051      18507.85       19320.854      122.91796    
   2209000   301.8756       376.64894      18521.835      19330.404      98.59893     
   2210000   321.43872      367.23261      18527.058      19354.201     -73.238269    
   2211000   297.89857      366.66461      18574.871      19367.765     -189.14212    
   2212000   325.64442      372.40439      18530.649      19368.981      5.9477498    
   2213000   314.37524      378.0194       18533.498      19361.321      211.03203    
   2214000   297.20763      371.51469      18549.633      19346.389     -2.0076121    
   2215000   307.8194       367.3975       18528.351      19336.173     -115.65484    
   2216000   299.06785      366.11695      18537.519      19331.539     -80.293187    
   2217000   300.57748      383.20753      18513.071      19326.342      262.80074    
   2218000   305.27287      368.80415      18514.291      19319.876     -42.407005    
   2219000   294.58604      364.6828       18530.408      19316.581     -191.81361    
   2220000   291.44245      367.73746      18524.849      19309.58      -157.66181    
   2221000   289.84382      378.13434      18510.691      19303.53       103.72574    
   2222000   291.17753      370.86921      18512.124      19299.607      42.620022    
   2223000   299.95181      366.87543      18501.271      19297.314     -86.567945    
   2224000   282.99442      362.72876      18530.195      19297.829     -197.54247    
   2225000   300.85848      378.48639      18501.899      19310.85       181.86798    
   2226000   304.44915      376.69367      18515.859      19328.155      76.610163    
   2227000   298.74516      367.5251       18546.674      19341.641     -135.30298    
   2228000   300.1968       368.10586      18551.355      19348.979     -218.0732     
   2229000   323.85503      373.63307      18514.565      19351.566     -39.683572    
   2230000   311.56033      385.54585      18517.088      19348.411      343.6069     
   2231000   294.69442      371.52755      18539.578      19332.751     -120.03801    
   2232000   300.55475      364.03583      18511.542      19305.608     -117.39212    
   2233000   294.27239      362.83246      18509.405      19293.279     -151.10439    
   2234000   288.7143       378.34588      18500.343      19291.778      85.953573    
   2235000   279.98944      381.78664      18510.486      19292.878      189.75197    
   2236000   291.55587      368.34468      18520.307      19305.806     -118.99035    
   2237000   311.10678      364.51152      18509.998      19319.638     -97.005119    
   2238000   302.64821      368.85002      18522.762      19324.638     -130.91554    
   2239000   308.50644      375.85615      18513.123      19330.386      64.727221    
   2240000   316.3929       378.46921      18499.846      19331.007      356.93127    
Loop time of 16.6607 on 48 procs for 50000 steps with 481 atoms

Performance: 12.965 ns/day, 1.851 hours/ns, 3001.080 timesteps/s, 1.444 Matom-step/s
100.0% CPU use with 48 MPI tasks x 1 OpenMP threads

MPI task timing breakdown:
Section |  min time  |  avg time  |  max time  |%varavg| %total
---------------------------------------------------------------
Pair    | 0.017325   | 0.72855    | 4.8072     | 138.9 |  4.37
Bond    | 0.0050424  | 0.92105    | 4.6509     | 149.2 |  5.53
Neigh   | 0.028643   | 0.031353   | 0.03354    |   0.8 |  0.19
Comm    | 6.1335     | 12.166     | 15.129     |  94.4 | 73.02
Output  | 0.0082508  | 0.013248   | 0.018268   |   2.8 |  0.08
Modify  | 0.64694    | 2.2125     | 9.2712     | 199.6 | 13.28
Other   |            | 0.5881     |            |       |  3.53

Nlocal:        10.0208 ave          45 max           0 min
Histogram: 23 9 7 1 0 0 0 1 5 2
Nghost:        1818.35 ave        2347 max        1178 min
Histogram: 8 0 0 0 24 0 0 0 0 16
Neighs:              0 ave           0 max           0 min
Histogram: 48 0 0 0 0 0 0 0 0 0

Total # of neighbors = 0
Ave neighs/atom = 0
Ave special neighs/atom = 15.567568
Neighbor list builds = 80
Dangerous builds = 0
unfix           myat1
next            cpt
jump            SELF loop
variable        zdes equal  -15+0.30*(${cpt}-1)
variable        zdes equal  -15+0.30*(38-1)
variable        zave equal xcm(H2,z)
fix             mytth2 H2 spring tether ${k1} 2.5 2.5 ${zdes} 0
fix             mytth2 H2 spring tether 0.5 2.5 2.5 ${zdes} 0
fix             mytth2 H2 spring tether 0.5 2.5 2.5 -3.9 0
run             10000
Generated 0 of 1 mixed pair_coeff terms from geometric mixing rule
Per MPI rank memory allocation (min/avg/max) = 13.32 | 13.8 | 14.98 Mbytes
   Step          Temp          E_pair         E_mol          TotEng         Press     
   2240000   316.3929       378.46921      18499.846      19331.007      356.93127    
   2241000   293.32955      361.35358      18548.336      19329.382     -318.31353    
   2242000   296.20642      370.7939       18536.11       19330.713      1.5133855    
   2243000   302.13193      369.22089      18515.142      19316.65      -136.75595    
   2244000   292.95374      374.41443      18509.513      19303.083     -4.5597218    
   2245000   292.20675      370.76255      18501.378      19290.227     -77.177194    
   2246000   293.5934       362.09113      18502.819      19284.981     -197.65074    
   2247000   288.5361       373.27214      18501.901      19288.007      73.425772    
   2248000   299.66295      373.80146      18497.349      19299.904      68.918411    
   2249000   303.32126      369.46071      18514.3        19317.75      -106.61507    
   2250000   295.72659      378.12319      18525.972      19327.217      18.60246     
Loop time of 3.26535 on 48 procs for 10000 steps with 481 atoms

Performance: 13.230 ns/day, 1.814 hours/ns, 3062.457 timesteps/s, 1.473 Matom-step/s
100.0% CPU use with 48 MPI tasks x 1 OpenMP threads

MPI task timing breakdown:
Section |  min time  |  avg time  |  max time  |%varavg| %total
---------------------------------------------------------------
Pair    | 0.0034839  | 0.14548    | 0.91801    |  62.1 |  4.46
Bond    | 0.0010101  | 0.18405    | 0.94815    |  67.0 |  5.64
Neigh   | 0.0054004  | 0.0059217  | 0.0063186  |   0.3 |  0.18
Comm    | 1.1518     | 2.375      | 2.9616     |  41.2 | 72.73
Output  | 0.0016654  | 0.0026452  | 0.003684   |   1.2 |  0.08
Modify  | 0.12753    | 0.43439    | 1.7819     |  84.9 | 13.30
Other   |            | 0.1178     |            |       |  3.61

Nlocal:        10.0208 ave          46 max           0 min
Histogram: 22 11 7 0 0 0 1 3 1 3
Nghost:        1818.35 ave        2348 max        1178 min
Histogram: 8 0 0 0 24 0 0 0 0 16
Neighs:              0 ave           0 max           0 min
Histogram: 48 0 0 0 0 0 0 0 0 0

Total # of neighbors = 0
Ave neighs/atom = 0
Ave special neighs/atom = 15.567568
Neighbor list builds = 15
Dangerous builds = 0
fix             myat1 all ave/time 1000 10 10000 v_zave v_zdes file simulation_data/abpot/${cpt}.dat
fix             myat1 all ave/time 1000 10 10000 v_zave v_zdes file simulation_data/abpot/38.dat
run             50000
Generated 0 of 1 mixed pair_coeff terms from geometric mixing rule
Per MPI rank memory allocation (min/avg/max) = 13.32 | 13.8 | 14.98 Mbytes
   Step          Temp          E_pair         E_mol          TotEng         Press     
   2250000   295.72659      378.12319      18525.972      19327.217      18.60246     
   2251000   298.7358       369.19879      18534.991      19331.618     -77.491775    
   2252000   306.21606      375.87694      18517.912      19331.92       11.064283    
   2253000   306.59187      370.80265      18519.887      19329.358     -46.097741    
   2254000   303.60774      367.97899      18524.138      19326.516     -127.98292    
   2255000   312.53442      371.95026      18501.3        19320.421     -183.1724     
   2256000   297.48423      374.72448      18510.349      19310.71       155.88988    
   2257000   304.06449      373.20231      18497.694      19305.948      32.324739    
   2258000   292.80255      368.12044      18521.175      19308.234     -112.81236    
   2259000   282.49601      374.46911      18534.696      19313.357     -6.7369425    
   2260000   298.26605      362.78557      18524.536      19314.077     -253.16375    
   2261000   285.76154      377.96803      18530.099      19316.931     -4.5134066    
   2262000   288.77861      374.81081      18536.065      19324.057      20.388514    
   2263000   312.73527      363.89884      18518.546      19329.903     -215.00072    
   2264000   310.56044      365.31914      18527.004      19336.67      -264.69785    
   2265000   318.01902      376.32569      18512.354      19343.698      139.32477    
   2266000   308.35694      381.33826      18527.338      19349.87       227.84195    
   2267000   307.57674      367.91532      18542.994      19350.986      22.960836    
   2268000   307.87079      369.97102      18526.389      19336.858     -91.42461     
   2269000   300.95222      361.14019      18524.84       19316.58      -116.98105    
   2270000   291.36375      380.03514      18506.156      19303.071      340.59019    
   2271000   300.41557      375.95546      18489.502      19295.289      109.34945    
   2272000   283.24036      363.0256       18527.83       19296.113     -154.52916    
   2273000   286.02494      368.57807      18523.811      19301.63      -136.28746    
   2274000   292.89599      368.49216      18526.9        19314.465     -17.092386    
   2275000   306.20116      379.43781      18513.243      19330.79       79.68015     
   2276000   320.06976      373.47594      18516.471      19347.899      46.455759    
   2277000   310.49554      367.74983      18544.091      19356.094     -132.51645    
   2278000   310.85139      376.02298      18533.748      19354.534      8.759585     
   2279000   307.08663      375.20606      18534.962      19349.544      7.1274816    
   2280000   301.92581      373.00855      18536.432      19341.432      75.689312    
   2281000   294.35548      369.75389      18540.18       19331.094     -167.74634    
   2282000   313.58891      363.17097      18508.514      19320.365     -178.97666    
   2283000   295.72531      379.15721      18505.008      19307.286      101.97314    
   2284000   294.53826      372.61696      18510.695      19304.734      84.132917    
   2285000   275.79975      371.36178      18543.795      19309.768     -73.013144    
   2286000   291.62238      372.01385      18530.98       19320.243     -108.99757    
   2287000   299.70604      370.02176      18535.525      19334.363     -156.46887    
   2288000   311.52062      372.79605      18532.402      19350.918      123.70254    
   2289000   305.71685      372.57896      18549.858      19359.853     -23.950206    
   2290000   320.43762      371.2355       18535.85       19365.564     -10.865197    
   2291000   308.41798      365.99236      18558.986      19366.259     -201.52329    
   2292000   308.91596      373.98513      18537.659      19353.638      42.700031    
   2293000   300.30614      368.7919       18544.904      19343.371     -24.423114    
   2294000   306.36285      377.73985      18517.341      19333.421      52.626003    
   2295000   306.20347      370.14117      18518.522      19326.776     -88.014742    
   2296000   309.33208      362.71988      18517.854      19323.163     -200.9592     
   2297000   296.88703      375.83801      18519.998      19320.618      106.99508    
   2298000   312.41953      368.29772      18505.156      19320.461     -47.242601    
   2299000   290.34947      370.49816      18526.683      19312.61      -46.667439    
   2300000   296.71799      372.53127      18505.944      19303.016     -110.21817    
Loop time of 16.13 on 48 procs for 50000 steps with 481 atoms

Performance: 13.391 ns/day, 1.792 hours/ns, 3099.817 timesteps/s, 1.491 Matom-step/s
100.0% CPU use with 48 MPI tasks x 1 OpenMP threads

MPI task timing breakdown:
Section |  min time  |  avg time  |  max time  |%varavg| %total
---------------------------------------------------------------
Pair    | 0.017585   | 0.72966    | 4.4907     | 136.9 |  4.52
Bond    | 0.0050483  | 0.92037    | 4.3939     | 148.4 |  5.71
Neigh   | 0.030804   | 0.033782   | 0.036139   |   0.8 |  0.21
Comm    | 6.0657     | 11.657     | 14.553     |  90.4 | 72.27
Output  | 0.0081513  | 0.01319    | 0.018305   |   2.8 |  0.08
Modify  | 0.63568    | 2.1865     | 8.8026     | 185.7 | 13.56
Other   |            | 0.5899     |            |       |  3.66

Nlocal:        10.0208 ave          54 max           0 min
Histogram: 25 11 4 1 0 0 2 3 1 1
Nghost:        1818.35 ave        2348 max        1177 min
Histogram: 8 0 0 0 24 0 0 0 0 16
Neighs:              0 ave           0 max           0 min
Histogram: 48 0 0 0 0 0 0 0 0 0

Total # of neighbors = 0
Ave neighs/atom = 0
Ave special neighs/atom = 15.567568
Neighbor list builds = 89
Dangerous builds = 0
unfix           myat1
next            cpt
jump            SELF loop
variable        zdes equal  -15+0.30*(${cpt}-1)
variable        zdes equal  -15+0.30*(39-1)
variable        zave equal xcm(H2,z)
fix             mytth2 H2 spring tether ${k1} 2.5 2.5 ${zdes} 0
fix             mytth2 H2 spring tether 0.5 2.5 2.5 ${zdes} 0
fix             mytth2 H2 spring tether 0.5 2.5 2.5 -3.6 0
run             10000
Generated 0 of 1 mixed pair_coeff terms from geometric mixing rule
Per MPI rank memory allocation (min/avg/max) = 13.32 | 13.8 | 14.98 Mbytes
   Step          Temp          E_pair         E_mol          TotEng         Press     
   2300000   296.71799      372.53127      18505.944      19303.016     -110.21817    
   2301000   304.31726      366.74261      18489.056      19291.213     -60.300613    
   2302000   298.17844      370.20188      18486.192      19283.025      12.434681    
   2303000   292.10651      372.14979      18488.381      19278.473      30.280327    
   2304000   292.22672      367.28911      18503.129      19288.533     -172.76275    
   2305000   288.10768      372.40759      18526.399      19311.028     -62.449107    
   2306000   298.21715      372.09044      18532.565      19331.341     -6.1749649    
   2307000   300.55094      370.54027      18536.535      19337.1       -42.565513    
   2308000   302.99967      372.07185      18532.527      19338.127      34.975638    
   2309000   310.88262      373.49777      18517.493      19335.798     -9.2917189    
   2310000   311.93482      374.36157      18503.508      19324.182     -28.865495    
Loop time of 3.26899 on 48 procs for 10000 steps with 481 atoms

Performance: 13.215 ns/day, 1.816 hours/ns, 3059.047 timesteps/s, 1.471 Matom-step/s
100.0% CPU use with 48 MPI tasks x 1 OpenMP threads

MPI task timing breakdown:
Section |  min time  |  avg time  |  max time  |%varavg| %total
---------------------------------------------------------------
Pair    | 0.0035546  | 0.14595    | 0.91437    |  61.9 |  4.46
Bond    | 0.0010023  | 0.18398    | 0.92129    |  66.7 |  5.63
Neigh   | 0.0088275  | 0.0096459  | 0.010287   |   0.4 |  0.30
Comm    | 1.1679     | 2.3687     | 2.9608     |  41.1 | 72.46
Output  | 0.0016328  | 0.0026701  | 0.003764   |   1.3 |  0.08
Modify  | 0.12693    | 0.44074    | 1.7876     |  85.0 | 13.48
Other   |            | 0.1173     |            |       |  3.59

Nlocal:        10.0208 ave          53 max           0 min
Histogram: 26 9 4 1 0 1 3 2 1 1
Nghost:        1818.88 ave        2347 max        1170 min
Histogram: 8 0 0 0 24 0 0 0 0 16
Neighs:              0 ave           0 max           0 min
Histogram: 48 0 0 0 0 0 0 0 0 0

Total # of neighbors = 0
Ave neighs/atom = 0
Ave special neighs/atom = 15.567568
Neighbor list builds = 25
Dangerous builds = 0
fix             myat1 all ave/time 1000 10 10000 v_zave v_zdes file simulation_data/abpot/${cpt}.dat
fix             myat1 all ave/time 1000 10 10000 v_zave v_zdes file simulation_data/abpot/39.dat
run             50000
Generated 0 of 1 mixed pair_coeff terms from geometric mixing rule
Per MPI rank memory allocation (min/avg/max) = 13.32 | 13.8 | 14.98 Mbytes
   Step          Temp          E_pair         E_mol          TotEng         Press     
   2310000   311.93482      374.36157      18503.508      19324.182     -28.865495    
   2311000   305.21712      371.94828      18503.384      19312.034     -74.358895    
   2312000   285.61442      378.8824       18511.667      19299.204      71.21207     
   2313000   286.84443      371.35748      18507.719      19289.49       52.399671    
   2314000   278.38817      372.28142      18509.546      19280.142     -6.2764556    
   2315000   279.35316      373.75575      18502.661      19276.112      63.766338    
   2316000   277.96689      371.00918      18509.6        19278.321     -24.597912    
   2317000   288.31874      374.70262      18509.44       19296.666      125.01051    
   2318000   314.80941      370.09983      18496.216      19316.741     -20.32731     
   2319000   299.7303       371.5371       18526.497      19326.885     -99.573805    
   2320000   303.81866      375.24778      18524.25       19334.198     -55.062216    
   2321000   293.79833      377.3925       18544.93       19342.686      100.73064    
   2322000   302.73628      373.60963      18536.732      19343.493      101.88132    
   2323000   305.46558      365.75714      18535.867      19338.681     -184.88517    
   2324000   305.47329      370.50496      18515.962      19323.534     -57.343265    
   2325000   293.91627      371.77196      18504.81       19297.114      57.486494    
   2326000   282.89945      369.64834      18509.485      19283.903     -37.863322    
   2327000   279.31832      375.86375      18512.233      19287.742      157.84243    
   2328000   301.72808      366.8887       18499.309      19297.907     -32.781681    
   2329000   300.90107      369.84416      18506.521      19306.891     -40.647737    
   2330000   295.53824      377.71309      18515.305      19315.871      119.74648    
   2331000   300.94553      366.97365      18521.868      19319.431     -61.006821    
   2332000   315.3361       373.75446      18500.141      19325.075      21.837691    
   2333000   296.00625      367.46556      18537.783      19328.771     -193.23883    
   2334000   287.06497      376.52935      18542.82       19330.079     -15.161891    
   2335000   305.67523      374.87522      18514.791      19327.023      81.177823    
   2336000   309.12851      370.40653      18507.246      19319.95      -64.16335     
   2337000   296.51005      366.92634      18508.744      19299.913     -108.79748    
   2338000   273.75487      374.24601      18510.818      19276.75      -15.512487    
   2339000   286.85881      374.77301      18484.981      19270.189      100.50849    
   2340000   292.87404      368.61688      18485.728      19273.386     -27.95033     
   2341000   285.86491      365.4942       18509.352      19283.858     -163.42875    
   2342000   292.91705      368.46758      18510.743      19298.313     -30.787786    
   2343000   299.57858      373.73581      18509.458      19311.827     -14.824786    
   2344000   304.94564      375.30036      18505.644      19317.257      143.93279    
   2345000   288.80062      368.21135      18537.663      19319.087     -221.19565    
   2346000   295.84689      367.85862      18531.128      19322.281     -127.3082     
   2347000   310.89414      369.78769      18508.944      19323.556     -62.52918     
   2348000   305.45996      370.00812      18508.662      19315.719      106.12453    
   2349000   299.43994      369.4654       18508.818      19306.719     -143.30645    
   2350000   294.51773      370.58978      18503.791      19295.774     -143.82764    
   2351000   276.11641      372.33747      18516.074      19283.476     -26.595565    
   2352000   281.57476      370.45163      18500.207      19273.533     -90.176084    
   2353000   294.85286      367.46011      18484.384      19273.717     -83.519998    
   2354000   305.77517      362.11813      18491.845      19291.463     -118.83226    
   2355000   307.09118      372.86678      18498.899      19311.149      31.862174    
   2356000   289.7457       370.20433      18532.891      19317.661      10.829655    
   2357000   294.12266      376.87179      18524.355      19322.054      8.6595749    
   2358000   301.58168      369.09712      18526.919      19327.515     -31.513335    
   2359000   308.67749      365.7658       18523.709      19331.127     -207.7479     
   2360000   308.81153      371.35527      18508.048      19321.248      15.055503    
Loop time of 17.2825 on 48 procs for 50000 steps with 481 atoms

Performance: 12.498 ns/day, 1.920 hours/ns, 2893.095 timesteps/s, 1.392 Matom-step/s
100.0% CPU use with 48 MPI tasks x 1 OpenMP threads

MPI task timing breakdown:
Section |  min time  |  avg time  |  max time  |%varavg| %total
---------------------------------------------------------------
Pair    | 0.019352   | 0.76154    | 5.0489     | 140.9 |  4.41
Bond    | 0.0055236  | 0.94928    | 4.6657     | 150.3 |  5.49
Neigh   | 0.032557   | 0.035819   | 0.038495   |   0.8 |  0.21
Comm    | 6.3924     | 12.52      | 15.632     |  95.0 | 72.44
Output  | 0.0093055  | 0.015041   | 0.020529   |   2.9 |  0.09
Modify  | 0.71734    | 2.3808     | 9.6482     | 198.2 | 13.78
Other   |            | 0.6198     |            |       |  3.59

Nlocal:        10.0208 ave          45 max           0 min
Histogram: 22 9 9 0 0 0 1 2 2 3
Nghost:        1818.35 ave        2348 max        1178 min
Histogram: 8 0 0 0 24 0 0 0 0 16
Neighs:              0 ave           0 max           0 min
Histogram: 48 0 0 0 0 0 0 0 0 0

Total # of neighbors = 0
Ave neighs/atom = 0
Ave special neighs/atom = 15.567568
Neighbor list builds = 86
Dangerous builds = 0
unfix           myat1
next            cpt
jump            SELF loop
variable        zdes equal  -15+0.30*(${cpt}-1)
variable        zdes equal  -15+0.30*(40-1)
variable        zave equal xcm(H2,z)
fix             mytth2 H2 spring tether ${k1} 2.5 2.5 ${zdes} 0
fix             mytth2 H2 spring tether 0.5 2.5 2.5 ${zdes} 0
fix             mytth2 H2 spring tether 0.5 2.5 2.5 -3.3 0
run             10000
Generated 0 of 1 mixed pair_coeff terms from geometric mixing rule
Per MPI rank memory allocation (min/avg/max) = 13.32 | 13.8 | 14.98 Mbytes
   Step          Temp          E_pair         E_mol          TotEng         Press     
   2360000   308.81153      371.35527      18508.048      19321.248      15.055503    
   2361000   297.96223      374.04732      18509.38       19309.748      107.65237    
   2362000   298.63751      366.74473      18503.001      19297.033     -95.336238    
   2363000   288.35997      371.98279      18499.785      19284.35       15.683883    
   2364000   288.58865      365.80938      18493.632      19272.351     -160.27683    
   2365000   289.11556      374.24846      18478.411      19266.323      55.807361    
   2366000   294.94127      374.80442      18471.079      19267.882      39.800822    
   2367000   297.1081       360.3433       18491.513      19276.955     -201.15412    
   2368000   288.33948      366.70432      18515.704      19294.961     -49.289312    
   2369000   290.24571      369.85187      18532.862      19317.994     -20.222139    
   2370000   301.34784      381.24343      18516.632      19329.041      151.79957    
Loop time of 3.26139 on 48 procs for 10000 steps with 481 atoms

Performance: 13.246 ns/day, 1.812 hours/ns, 3066.180 timesteps/s, 1.475 Matom-step/s
100.0% CPU use with 48 MPI tasks x 1 OpenMP threads

MPI task timing breakdown:
Section |  min time  |  avg time  |  max time  |%varavg| %total
---------------------------------------------------------------
Pair    | 0.0034955  | 0.1464     | 0.95867    |  61.7 |  4.49
Bond    | 0.0010135  | 0.18424    | 0.91245    |  66.8 |  5.65
Neigh   | 0.0045699  | 0.0050071  | 0.0053665  |   0.3 |  0.15
Comm    | 1.2006     | 2.3715     | 2.9469     |  41.5 | 72.71
Output  | 0.0017405  | 0.0027696  | 0.003783   |   1.2 |  0.08
Modify  | 0.13259    | 0.43162    | 1.7879     |  86.2 | 13.23
Other   |            | 0.1199     |            |       |  3.68

Nlocal:        10.0208 ave          48 max           0 min
Histogram: 25 6 8 1 0 0 2 2 2 2
Nghost:        1818.35 ave        2347 max        1176 min
Histogram: 8 0 0 0 24 0 0 0 0 16
Neighs:              0 ave           0 max           0 min
Histogram: 48 0 0 0 0 0 0 0 0 0

Total # of neighbors = 0
Ave neighs/atom = 0
Ave special neighs/atom = 15.567568
Neighbor list builds = 13
Dangerous builds = 0
fix             myat1 all ave/time 1000 10 10000 v_zave v_zdes file simulation_data/abpot/${cpt}.dat
fix             myat1 all ave/time 1000 10 10000 v_zave v_zdes file simulation_data/abpot/40.dat
run             50000
Generated 0 of 1 mixed pair_coeff terms from geometric mixing rule
Per MPI rank memory allocation (min/avg/max) = 13.32 | 13.8 | 14.98 Mbytes
   Step          Temp          E_pair         E_mol          TotEng         Press     
   2370000   301.34784      381.24343      18516.632      19329.041      151.79957    
   2371000   297.29777      373.2828       18536.218      19334.871     -27.335118    
   2372000   313.93826      366.00676      18519.842      19335.028     -182.26488    
   2373000   301.15455      366.6088       18527.256      19324.753     -165.57091    
   2374000   310.84251      377.56104      18490.172      19312.483      172.76835    
   2375000   295.32922      374.43108      18498.397      19295.382      134.52196    
   2376000   289.4935       364.16871      18510.139      19288.512     -219.50176    
   2377000   283.97504      365.27518      18510.303      19281.886     -154.99297    
   2378000   280.23766      368.94719      18509.126      19279.034     -45.867093    
   2379000   296.67493      378.15461      18488.191      19290.824      218.32982    
   2380000   302.52947      371.285        18513.998      19318.139     -10.405716    
   2381000   302.36105      361.48408      18543.156      19337.255     -398.40379    
   2382000   306.18248      374.50477      18531.573      19344.161      135.93098    
   2383000   318.99803      379.88052      18502.789      19339.088      240.36028    
   2384000   311.79614      366.99383      18518.636      19331.745     -139.41645    
   2385000   295.89525      369.79945      18529.191      19322.354      14.351583    
   2386000   301.45044      369.16503      18506.211      19306.688     -84.160091    
   2387000   301.78885      373.56547      18489.718      19295.079      95.898574    
   2388000   287.58277      379.92409      18495.766      19287.16       209.35361    
   2389000   295.24685      365.63687      18501.272      19289.345     -113.0769     
   2390000   291.5591       367.76792      18519.565      19304.493     -250.68157    
   2391000   304.9765       375.10109      18526.436      19337.894      53.378181    
   2392000   319.30294      378.94168      18516.972      19352.768      178.39357    
   2393000   299.56921      372.7198       18549.206      19350.546     -8.1880169    
   2394000   299.61263      362.71953      18555.267      19346.669     -273.28309    
   2395000   324.18069      374.47481      18498.545      19336.854      142.51634    
   2396000   311.72543      376.1082       18499.376      19321.498      44.040537    
   2397000   298.11192      374.89625      18508.086      19309.518     -31.371917    
   2398000   294.06705      368.31035      18510.675      19299.733     -45.905961    
   2399000   287.27809      364.18567      18522.007      19297.227     -169.1117     
   2400000   297.44827      377.22235      18505.23       19308.038      154.09785    
   2401000   298.28938      378.13064      18509.154      19314.074      241.66656    
   2402000   296.79869      367.36816      18528.307      19320.331     -144.43742    
   2403000   295.53706      368.80565      18529.306      19320.962     -207.75463    
   2404000   290.27618      375.8687       18528.451      19319.643     -40.491933    
   2405000   291.54572      379.5826       18523.669      19320.392      95.35363     
   2406000   304.84328      370.92144      18513.795      19320.883     -54.602628    
   2407000   302.60276      363.94225      18522.172      19319.075     -185.38235    
   2408000   290.2819       368.73647      18532.261      19316.329     -128.82957    
   2409000   282.94582      373.12577      18534.856      19312.817      44.79702     
   2410000   301.35879      373.25264      18506.091      19310.525      49.884905    
   2411000   295.4662       366.61723      18521.651      19311.018     -183.28724    
   2412000   309.50337      365.61362      18507.118      19315.566     -100.09018    
   2413000   300.25494      369.22372      18522.603      19321.428     -147.31247    
   2414000   305.1661       372.55054      18519.112      19328.291     -49.750873    
   2415000   292.24538      370.5574       18545.051      19333.75      -96.878034    
   2416000   294.99184      368.76978      18549.69       19340.531     -62.440206    
   2417000   309.3707       368.84565      18532.058      19343.548     -63.8048      
   2418000   313.39237      377.32088      18517.281      19343          90.07117     
   2419000   309.05602      375.28086      18517.926      19335.4        56.243596    
   2420000   314.63965      363.48562      18510.29       19323.958     -238.31076    
Loop time of 16.2339 on 48 procs for 50000 steps with 481 atoms

Performance: 13.306 ns/day, 1.804 hours/ns, 3079.982 timesteps/s, 1.481 Matom-step/s
100.0% CPU use with 48 MPI tasks x 1 OpenMP threads

MPI task timing breakdown:
Section |  min time  |  avg time  |  max time  |%varavg| %total
---------------------------------------------------------------
Pair    | 0.017284   | 0.7318     | 4.72       | 137.9 |  4.51
Bond    | 0.0050478  | 0.92097    | 4.4904     | 148.8 |  5.67
Neigh   | 0.030075   | 0.033061   | 0.035422   |   0.8 |  0.20
Comm    | 5.9666     | 11.785     | 14.652     |  91.6 | 72.60
Output  | 0.0083347  | 0.013747   | 0.020727   |   2.9 |  0.08
Modify  | 0.67108    | 2.152      | 8.8242     | 188.8 | 13.26
Other   |            | 0.597      |            |       |  3.68

Nlocal:        10.0208 ave          51 max           0 min
Histogram: 26 7 7 0 1 2 0 2 0 3
Nghost:        1818.35 ave        2347 max        1172 min
Histogram: 8 0 0 0 24 0 0 0 0 16
Neighs:              0 ave           0 max           0 min
Histogram: 48 0 0 0 0 0 0 0 0 0

Total # of neighbors = 0
Ave neighs/atom = 0
Ave special neighs/atom = 15.567568
Neighbor list builds = 88
Dangerous builds = 0
unfix           myat1
next            cpt
jump            SELF loop
variable        zdes equal  -15+0.30*(${cpt}-1)
variable        zdes equal  -15+0.30*(41-1)
variable        zave equal xcm(H2,z)
fix             mytth2 H2 spring tether ${k1} 2.5 2.5 ${zdes} 0
fix             mytth2 H2 spring tether 0.5 2.5 2.5 ${zdes} 0
fix             mytth2 H2 spring tether 0.5 2.5 2.5 -3 0
run             10000
Generated 0 of 1 mixed pair_coeff terms from geometric mixing rule
Per MPI rank memory allocation (min/avg/max) = 13.32 | 13.8 | 14.98 Mbytes
   Step          Temp          E_pair         E_mol          TotEng         Press     
   2420000   314.63965      363.48562      18510.29       19323.958     -238.31076    
   2421000   283.39412      369.46586      18533.761      19308.704     -160.57975    
   2422000   306.53977      374.18635      18482.483      19295.263      80.723485    
   2423000   294.11739      374.80497      18495.925      19291.55       102.99006    
   2424000   286.96216      371.20428      18511.704      19293.491     -138.29552    
   2425000   294.81021      363.77987      18520.735      19306.326     -247.081      
   2426000   303.20042      370.54107      18524.875      19329.231     -16.087577    
   2427000   299.6738       380.65601      18535.604      19345.03       289.75485    
   2428000   315.72535      370.93856      18525.395      19348.07      -68.871262    
   2429000   310.39984      359.66047      18540.435      19344.213     -281.48478    
   2430000   307.31052      377.68698      18520.34       19337.723      97.133724    
Loop time of 3.31066 on 48 procs for 10000 steps with 481 atoms

Performance: 13.049 ns/day, 1.839 hours/ns, 3020.544 timesteps/s, 1.453 Matom-step/s
100.0% CPU use with 48 MPI tasks x 1 OpenMP threads

MPI task timing breakdown:
Section |  min time  |  avg time  |  max time  |%varavg| %total
---------------------------------------------------------------
Pair    | 0.0035036  | 0.14708    | 0.963      |  61.7 |  4.44
Bond    | 0.0010267  | 0.18552    | 0.88908    |  66.6 |  5.60
Neigh   | 0.0082354  | 0.0090265  | 0.0096773  |   0.4 |  0.27
Comm    | 1.1998     | 2.4122     | 2.9932     |  41.4 | 72.86
Output  | 0.001756   | 0.002807   | 0.0038438  |   1.2 |  0.08
Modify  | 0.13089    | 0.43409    | 1.8169     |  86.9 | 13.11
Other   |            | 0.1199     |            |       |  3.62

Nlocal:        10.0208 ave          49 max           0 min
Histogram: 26 5 8 1 0 1 2 1 1 3
Nghost:        1818.35 ave        2348 max        1175 min
Histogram: 8 0 0 0 24 0 0 0 0 16
Neighs:              0 ave           0 max           0 min
Histogram: 48 0 0 0 0 0 0 0 0 0

Total # of neighbors = 0
Ave neighs/atom = 0
Ave special neighs/atom = 15.567568
Neighbor list builds = 23
Dangerous builds = 0
fix             myat1 all ave/time 1000 10 10000 v_zave v_zdes file simulation_data/abpot/${cpt}.dat
fix             myat1 all ave/time 1000 10 10000 v_zave v_zdes file simulation_data/abpot/41.dat
run             50000
Generated 0 of 1 mixed pair_coeff terms from geometric mixing rule
Per MPI rank memory allocation (min/avg/max) = 13.32 | 13.8 | 14.98 Mbytes
   Step          Temp          E_pair         E_mol          TotEng         Press     
   2430000   307.31052      377.68698      18520.34       19337.723      97.133724    
   2431000   278.46347      371.86887      18555.267      19325.558     -144.41898    
   2432000   296.3687       377.89874      18515.934      19317.874      41.338748    
   2433000   292.96706      375.25329      18518.672      19313.1        25.392108    
   2434000   288.61821      360.82103      18535.107      19308.88      -268.00675    
   2435000   283.98282      372.09548      18522.962      19301.377     -112.79396    
   2436000   294.19149      379.51955      18500.264      19300.709      320.65121    
   2437000   290.70124      369.48529      18527.104      19312.521     -158.69753    
   2438000   298.88881      367.58433      18541.621      19336.852     -147.47323    
   2439000   298.21457      377.00699      18550.669      19354.358      132.26313    
   2440000   297.38525      377.02615      18557.157      19359.679      73.814442    
   2441000   295.15899      376.76588      18554.819      19353.896     -41.395926    
   2442000   315.64666      368.0774       18521.77       19341.471     -85.887613    
   2443000   297.63208      366.38517      18535.84       19328.073     -247.58263    
   2444000   294.21786      375.76841      18521.395      19318.127     -3.147029     
   2445000   277.99872      379.34849      18533.588      19310.694      168.43314    
   2446000   279.28236      371.40722      18534.955      19305.956     -164.6073     
   2447000   278.18664      365.37938      18533.777      19297.183     -180.24481    
   2448000   280.13057      375.95152      18522.103      19298.862      19.576969    
   2449000   300.09352      379.09523      18512.395      19320.861      4.6204504    
   2450000   308.45564      379.15056      18521.868      19342.353     -23.592055    
   2451000   308.2567       370.79335      18545.344      19357.188     -106.19966    
   2452000   311.87159      368.35755      18544.808      19359.388     -94.34867     
   2453000   294.99262      374.56394      18559.472      19356.108     -143.63385    
   2454000   298.95632      383.41864      18530.149      19341.311      181.04996    
   2455000   282.24636      370.61618      18551.814      19326.265     -65.305949    
   2456000   293.80491      366.37621      18527.859      19314.608     -207.09618    
   2457000   294.02011      371.69773      18515.135      19307.514      41.385647    
   2458000   286.91971      375.23475      18519.997      19305.753      23.698788    
   2459000   294.4624       374.08745      18515.051      19310.452      62.660035    
   2460000   300.77025      364.79452      18537.058      19332.192     -221.39542    
   2461000   296.97583      368.83801      18567.151      19360.899     -206.16096    
   2462000   310.66694      377.82001      18545.554      19367.872      137.48035    
   2463000   321.7753       378.71547      18530.172      19369.28       152.83685    
   2464000   313.5048       366.10219      18545.035      19359.696     -305.37867    
   2465000   310.23027      368.9004       18530.137      19342.912     -68.021562    
   2466000   293.47541      375.29031      18534.331      19329.523      11.12566     
   2467000   301.76305      376.8142       18510.414      19318.988      124.76415    
   2468000   295.36229      375.39929      18519.5        19317.5        28.090234    
   2469000   303.67473      362.55611      18523.662      19320.712     -284.62118    
   2470000   295.57636      369.29689      18535.224      19327.428     -189.22222    
   2471000   306.80161      378.58438      18517.941      19335.494      159.64804    
   2472000   293.4384       375.55849      18555.054      19350.461      105.05162    
   2473000   315.65084      360.90178      18565.624      19378.155     -273.51141    
   2474000   314.13263      368.3208       18576.473      19394.251     -69.718517    
   2475000   326.21945      375.149        18549.545      19391.445      120.20283    
   2476000   305.44666      375.95597      18568.149      19381.135     -3.3387499    
   2477000   291.84119      372.39029      18572.702      19362.655     -142.90712    
   2478000   290.29608      366.66636      18564.982      19347.001     -142.49057    
   2479000   302.33825      373.18868      18536.836      19342.607     -97.877202    
   2480000   291.3376       380.06433      18538.374      19335.281      110.52783    
Loop time of 16.6117 on 48 procs for 50000 steps with 481 atoms

Performance: 13.003 ns/day, 1.846 hours/ns, 3009.918 timesteps/s, 1.448 Matom-step/s
100.0% CPU use with 48 MPI tasks x 1 OpenMP threads

MPI task timing breakdown:
Section |  min time  |  avg time  |  max time  |%varavg| %total
---------------------------------------------------------------
Pair    | 0.017643   | 0.73591    | 4.7404     | 138.1 |  4.43
Bond    | 0.0050515  | 0.92785    | 4.633      | 149.1 |  5.59
Neigh   | 0.036333   | 0.039728   | 0.042519   |   0.8 |  0.24
Comm    | 6.0997     | 12.06      | 15.029     |  93.4 | 72.60
Output  | 0.0086242  | 0.013927   | 0.019114   |   2.8 |  0.08
Modify  | 0.6593     | 2.2362     | 9.1628     | 195.2 | 13.46
Other   |            | 0.5977     |            |       |  3.60

Nlocal:        10.0208 ave          45 max           0 min
Histogram: 23 10 6 1 0 0 0 2 3 3
Nghost:        1818.35 ave        2348 max        1182 min
Histogram: 8 0 0 0 24 0 0 0 0 16
Neighs:              0 ave           0 max           0 min
Histogram: 48 0 0 0 0 0 0 0 0 0

Total # of neighbors = 0
Ave neighs/atom = 0
Ave special neighs/atom = 15.567568
Neighbor list builds = 101
Dangerous builds = 0
unfix           myat1
next            cpt
jump            SELF loop
variable        zdes equal  -15+0.30*(${cpt}-1)
variable        zdes equal  -15+0.30*(42-1)
variable        zave equal xcm(H2,z)
fix             mytth2 H2 spring tether ${k1} 2.5 2.5 ${zdes} 0
fix             mytth2 H2 spring tether 0.5 2.5 2.5 ${zdes} 0
fix             mytth2 H2 spring tether 0.5 2.5 2.5 -2.7 0
run             10000
Generated 0 of 1 mixed pair_coeff terms from geometric mixing rule
Per MPI rank memory allocation (min/avg/max) = 13.32 | 13.8 | 14.98 Mbytes
   Step          Temp          E_pair         E_mol          TotEng         Press     
   2480000   291.3376       380.06433      18538.374      19335.281      110.52783    
   2481000   292.02643      379.33617      18529.577      19326.742      63.890906    
   2482000   305.45547      364.78626      18523.637      19325.466     -179.86532    
   2483000   299.22077      369.68581      18529.944      19327.751     -160.62289    
   2484000   283.76523      377.81483      18548.19       19332.013      104.22536    
   2485000   302.80369      373.35033      18534.042      19340.641     -97.760983    
   2486000   302.09546      372.40575      18547.655      19352.295      5.3397624    
   2487000   297.10224      370.48638      18568.704      19364.281     -214.44305    
   2488000   326.21383      368.63885      18538.417      19373.799     -49.329856    
   2489000   328.61483      378.0838       18530.473      19378.735      96.185247    
   2490000   306.71519      377.52548      18554.48       19370.85       94.389135    
Loop time of 3.2957 on 48 procs for 10000 steps with 481 atoms

Performance: 13.108 ns/day, 1.831 hours/ns, 3034.254 timesteps/s, 1.459 Matom-step/s
100.0% CPU use with 48 MPI tasks x 1 OpenMP threads

MPI task timing breakdown:
Section |  min time  |  avg time  |  max time  |%varavg| %total
---------------------------------------------------------------
Pair    | 0.0036049  | 0.1481     | 0.9134     |  61.3 |  4.49
Bond    | 0.0010357  | 0.18639    | 0.89177    |  66.9 |  5.66
Neigh   | 0.0053848  | 0.0058595  | 0.0062342  |   0.3 |  0.18
Comm    | 1.347      | 2.3764     | 2.9731     |  41.2 | 72.10
Output  | 0.0017339  | 0.0027969  | 0.0038509  |   1.3 |  0.08
Modify  | 0.13424    | 0.45619    | 1.8125     |  84.8 | 13.84
Other   |            | 0.12       |            |       |  3.64

Nlocal:        10.0208 ave          47 max           0 min
Histogram: 22 10 8 0 0 0 2 2 2 2
Nghost:        1818.35 ave        2348 max        1176 min
Histogram: 8 0 0 0 24 0 0 0 0 16
Neighs:              0 ave           0 max           0 min
Histogram: 48 0 0 0 0 0 0 0 0 0

Total # of neighbors = 0
Ave neighs/atom = 0
Ave special neighs/atom = 15.567568
Neighbor list builds = 14
Dangerous builds = 0
fix             myat1 all ave/time 1000 10 10000 v_zave v_zdes file simulation_data/abpot/${cpt}.dat
fix             myat1 all ave/time 1000 10 10000 v_zave v_zdes file simulation_data/abpot/42.dat
run             50000
Generated 0 of 1 mixed pair_coeff terms from geometric mixing rule
Per MPI rank memory allocation (min/avg/max) = 13.32 | 13.8 | 14.98 Mbytes
   Step          Temp          E_pair         E_mol          TotEng         Press     
   2490000   306.71519      377.52548      18554.48       19370.85       94.389135    
   2491000   288.18485      364.00027      18574.382      19350.714     -275.60097    
   2492000   302.77378      373.06921      18523.019      19329.294     -39.155436    
   2493000   287.81691      374.08995      18532.474      19318.37       107.81873    
   2494000   286.58678      372.38006      18539          19321.425      24.109643    
   2495000   302.11181      370.35551      18524.64       19327.254     -72.922826    
   2496000   280.0832       369.35272      18559.1        19329.192     -197.42082    
   2497000   291.75886      372.69315      18544.864      19335.002      95.898259    
   2498000   312.07589      376.53181      18521.104      19344.151      86.548858    
   2499000   306.70647      365.19479      18552.774      19356.801     -217.02396    
   2500000   314.20108      362.97782      18560.723      19373.256     -177.3639     
   2501000   306.61304      381.70739      18573.333      19393.739      164.92596    
   2502000   322.56417      374.71701      18569.593      19405.831     -74.577643    
   2503000   315.12109      376.70636      18576.185      19403.763     -34.060114    
   2504000   314.77915      367.30417      18558.171      19375.858     -183.58423    
   2505000   295.07521      371.17818      18560.817      19354.185     -48.645023    
   2506000   299.47406      379.16249      18535.812      19343.459      184.6727     
   2507000   292.61848      379.45215      18535.497      19333.624      79.453829    
   2508000   297.87085      366.78814      18535.852      19328.83      -147.71843    
   2509000   314.95532      368.32669      18506.641      19325.602     -70.248432    
   2510000   304.62353      375.30055      18514.965      19326.118      63.546874    
   2511000   301.8124       378.31212      18524.591      19334.733      52.485876    
   2512000   308.17888      370.22994      18541.512      19352.681     -2.7301492    
   2513000   302.22234      368.91918      18564.826      19366.161     -188.19383    
   2514000   310.48065      369.76099      18559.765      19373.758     -9.8977187    
   2515000   308.07634      372.23814      18563.243      19376.273     -14.216878    
   2516000   313.47431      376.02614      18553.425      19377.967      61.831101    
   2517000   314.81518      370.46434      18545.46       19366.359     -75.310777    
   2518000   305.83262      364.86547      18538.478      19340.925     -101.80494    
   2519000   299.53621      374.51331      18518.233      19321.319      23.048172    
   2520000   275.46244      373.97737      18546.644      19314.75       101.12274    
   2521000   309.08118      370.71949      18506.023      19318.972      33.967892    
   2522000   287.87558      370.673        18544.267      19326.829     -94.172718    
   2523000   299.24976      371.70649      18542.617      19342.487      60.482189    
   2524000   296.60999      372.17966      18557.756      19354.322      33.739603    
   2525000   292.20103      378.85582      18565.025      19361.959      192.82768    
   2526000   305.13922      366.9078       18561.05       19364.548     -92.276396    
   2527000   282.16757      370.15467      18588.781      19362.658      3.3108815    
   2528000   317.54006      375.04192      18536.386      19365.761      83.412341    
   2529000   302.37735      374.76206      18545.48       19352.881     -20.273977    
   2530000   279.53099      365.59899      18558.166      19323.715     -195.9385     
   2531000   281.04206      371.18364      18537.572      19310.868     -129.71594    
   2532000   302.92792      368.83965      18505.656      19307.922      50.064544    
   2533000   284.34234      378.96977      18523.681      19309.485      228.25564    
   2534000   293.58842      369.0353       18534.718      19323.816     -91.418965    
   2535000   303.92768      370.1966       18534.133      19339.186     -53.410236    
   2536000   299.99668      372.64391      18546.286      19348.162      6.3487976    
   2537000   298.41208      378.56716      18549.021      19354.553      222.53185    
   2538000   302.7456       374.65845      18550.615      19358.439     -47.013235    
   2539000   317.28841      368.3106       18536.316      19358.599     -73.4373      
   2540000   303.3767       371.21961      18542.218      19347.505     -50.163619    
Loop time of 16.4054 on 48 procs for 50000 steps with 481 atoms

Performance: 13.166 ns/day, 1.823 hours/ns, 3047.771 timesteps/s, 1.466 Matom-step/s
100.0% CPU use with 48 MPI tasks x 1 OpenMP threads

MPI task timing breakdown:
Section |  min time  |  avg time  |  max time  |%varavg| %total
---------------------------------------------------------------
Pair    | 0.017732   | 0.73752    | 4.9193     | 137.9 |  4.50
Bond    | 0.0051236  | 0.92765    | 4.3029     | 148.9 |  5.65
Neigh   | 0.021917   | 0.024011   | 0.025798   |   0.7 |  0.15
Comm    | 5.8916     | 11.86      | 14.805     |  92.0 | 72.29
Output  | 0.0085034  | 0.013825   | 0.018948   |   2.8 |  0.08
Modify  | 0.67864    | 2.2417     | 9.0682     | 189.7 | 13.66
Other   |            | 0.6007     |            |       |  3.66

Nlocal:        10.0208 ave          45 max           0 min
Histogram: 21 12 7 0 0 0 0 3 1 4
Nghost:        1818.35 ave        2347 max        1178 min
Histogram: 8 0 0 0 24 0 0 0 0 16
Neighs:              0 ave           0 max           0 min
Histogram: 48 0 0 0 0 0 0 0 0 0

Total # of neighbors = 0
Ave neighs/atom = 0
Ave special neighs/atom = 15.567568
Neighbor list builds = 63
Dangerous builds = 0
unfix           myat1
next            cpt
jump            SELF loop
variable        zdes equal  -15+0.30*(${cpt}-1)
variable        zdes equal  -15+0.30*(43-1)
variable        zave equal xcm(H2,z)
fix             mytth2 H2 spring tether ${k1} 2.5 2.5 ${zdes} 0
fix             mytth2 H2 spring tether 0.5 2.5 2.5 ${zdes} 0
fix             mytth2 H2 spring tether 0.5 2.5 2.5 -2.4 0
run             10000
Generated 0 of 1 mixed pair_coeff terms from geometric mixing rule
Per MPI rank memory allocation (min/avg/max) = 13.32 | 13.8 | 14.98 Mbytes
   Step          Temp          E_pair         E_mol          TotEng         Press     
   2540000   303.3767       371.21961      18542.218      19347.505     -50.163619    
   2541000   295.42667      372.25236      18539.051      19333.996     -25.621292    
   2542000   295.13643      379.37842      18519.931      19321.587      151.5878     
   2543000   294.46262      371.96171      18509.649      19302.924      8.1152707    
   2544000   279.5871       367.99277      18509.422      19277.445     -141.68649    
   2545000   274.06587      366.54925      18502.887      19261.567     -62.9911      
   2546000   276.12383      372.54988      18495.53       19263.155      33.282134    
   2547000   260.95294      375.92097      18524.671      19273.961     -25.197228    
   2548000   272.20351      372.20447      18526.948      19288.618      21.703733    
   2549000   290.06791      369.91462      18522.195      19307.135     -83.474252    
   2550000   284.59652      373.4134       18545.461      19326.072      71.843145    
Loop time of 3.27124 on 48 procs for 10000 steps with 481 atoms

Performance: 13.206 ns/day, 1.817 hours/ns, 3056.947 timesteps/s, 1.470 Matom-step/s
100.0% CPU use with 48 MPI tasks x 1 OpenMP threads

MPI task timing breakdown:
Section |  min time  |  avg time  |  max time  |%varavg| %total
---------------------------------------------------------------
Pair    | 0.0033917  | 0.14624    | 0.93347    |  61.2 |  4.47
Bond    | 0.0010079  | 0.18444    | 0.8662     |  66.6 |  5.64
Neigh   | 0.0030611  | 0.0033729  | 0.0035987  |   0.2 |  0.10
Comm    | 1.3198     | 2.37       | 2.956      |  41.4 | 72.45
Output  | 0.0017002  | 0.0027578  | 0.0038384  |   1.3 |  0.08
Modify  | 0.13127    | 0.44522    | 1.8089     |  86.1 | 13.61
Other   |            | 0.1192     |            |       |  3.64

Nlocal:        10.0208 ave          44 max           0 min
Histogram: 21 9 10 0 0 0 0 3 2 3
Nghost:        1818.35 ave        2346 max        1179 min
Histogram: 8 0 0 0 24 0 0 0 0 16
Neighs:              0 ave           0 max           0 min
Histogram: 48 0 0 0 0 0 0 0 0 0

Total # of neighbors = 0
Ave neighs/atom = 0
Ave special neighs/atom = 15.567568
Neighbor list builds = 9
Dangerous builds = 0
fix             myat1 all ave/time 1000 10 10000 v_zave v_zdes file simulation_data/abpot/${cpt}.dat
fix             myat1 all ave/time 1000 10 10000 v_zave v_zdes file simulation_data/abpot/43.dat
run             50000
Generated 0 of 1 mixed pair_coeff terms from geometric mixing rule
Per MPI rank memory allocation (min/avg/max) = 13.32 | 13.8 | 14.98 Mbytes
   Step          Temp          E_pair         E_mol          TotEng         Press     
   2550000   284.59652      373.4134       18545.461      19326.072      71.843145    
   2551000   307.17797      369.90378      18529.236      19338.647      3.8342235    
   2552000   302.78631      373.72787      18540.732      19347.683     -16.85324     
   2553000   299.69054      366.40074      18555.296      19350.49      -241.18971    
   2554000   310.43324      372.56637      18534.525      19351.256     -15.786709    
   2555000   296.92715      375.91106      18555.282      19356.033     -28.608478    
   2556000   316.82492      370.49914      18526.686      19350.495      40.548345    
   2557000   295.94785      367.28133      18535.056      19325.776     -179.74731    
   2558000   298.1317       366.70526      18511.309      19304.577     -51.846161    
   2559000   286.71187      374.18756      18511.648      19296.06      -19.966951    
   2560000   296.72181      380.56246      18495.143      19300.252      154.75583    
   2561000   302.0894       371.62381      18506.338      19310.188      56.706936    
   2562000   287.14161      364.42852      18544.186      19319.454     -300.00023    
   2563000   301.04078      369.22014      18528.184      19328.13      -33.930648    
   2564000   298.35605      377.88607      18535.237      19340.008      32.405918    
   2565000   318.00889      382.77768      18514.657      19352.439      221.38339    
   2566000   304.13127      370.17019      18558.727      19364.045     -133.71517    
   2567000   315.86998      365.91673      18572.785      19390.645     -184.10133    
   2568000   337.37581      372.85283      18550.149      19405.716     -13.957544    
   2569000   327.34473      384.27989      18540.875      19393.516      270.17472    
   2570000   303.75193      375.21138      18556.156      19365.973     -69.624439    
   2571000   296.54388      371.2362       18554.948      19350.476     -217.81012    
   2572000   307.5818       368.52915      18533.415      19342.029     -64.581996    
   2573000   295.97337      372.42157      18533.974      19329.871      57.186273    
   2574000   293.54527      372.46358      18525.637      19318.102      0.13865528   
   2575000   300.35489      374.27693      18508.318      19312.339      19.800314    
   2576000   289.51724      372.3658       18520.544      19307.148     -75.343067    
   2577000   290.294        369.97022      18518.827      19304.147     -95.278253    
   2578000   294.74136      371.76651      18512.071      19305.55       65.188118    
   2579000   302.91737      374.48135      18513.334      19321.226      32.298087    
   2580000   303.13518      370.93599      18537.857      19342.516     -128.64903    
   2581000   306.23258      372.79052      18545.656      19356.6       -158.17166    
   2582000   323.832        371.91619      18525.505      19360.756     -11.701828    
   2583000   307.42892      373.81048      18537.995      19351.671     -38.398876    
   2584000   289.35392      374.112        18547.207      19335.324      88.798941    
   2585000   300.50361      367.56465      18528.38       19325.902     -100.25572    
   2586000   277.42693      369.49855      18555.198      19321.636     -88.271052    
   2587000   297.10884      369.54569      18523.915      19318.56      -119.13882    
   2588000   308.49423      366.7124       18509.787      19317.89      -91.819925    
   2589000   301.50152      372.27077      18511.788      19315.443      107.54628    
   2590000   301.34618      370.17053      18517.444      19318.777     -127.89896    
   2591000   310.64997      369.67438      18509.149      19323.298     -42.283966    
   2592000   298.89995      369.85281      18531.328      19328.844     -100.25899    
   2593000   304.6426       365.02121      18544.795      19345.695     -184.46142    
   2594000   316.73819      375.37666      18539.742      19368.304      170.97875    
   2595000   321.74139      373.44787      18541.264      19375.056      85.181121    
   2596000   326.8393       366.97066      18530.164      19364.773     -79.524283    
   2597000   312.51632      365.94891      18531.213      19344.307     -238.62974    
   2598000   301.44533      377.53161      18519.822      19328.658      31.462686    
   2599000   298.37586      378.82893      18512.587      19318.328      97.690333    
   2600000   299.06439      368.38098      18517.524      19313.803     -73.050127    
Loop time of 16.0448 on 48 procs for 50000 steps with 481 atoms

Performance: 13.462 ns/day, 1.783 hours/ns, 3116.281 timesteps/s, 1.499 Matom-step/s
100.0% CPU use with 48 MPI tasks x 1 OpenMP threads

MPI task timing breakdown:
Section |  min time  |  avg time  |  max time  |%varavg| %total
---------------------------------------------------------------
Pair    | 0.017535   | 0.73123    | 4.7356     | 136.1 |  4.56
Bond    | 0.0050897  | 0.9221     | 4.4121     | 148.3 |  5.75
Neigh   | 0.018081   | 0.019926   | 0.021406   |   0.6 |  0.12
Comm    | 6.0698     | 11.524     | 14.45      |  89.8 | 71.82
Output  | 0.0084155  | 0.013656   | 0.018824   |   2.9 |  0.09
Modify  | 0.66194    | 2.2362     | 8.7338     | 182.6 | 13.94
Other   |            | 0.598      |            |       |  3.73

Nlocal:        10.0208 ave          45 max           0 min
Histogram: 23 10 6 1 0 0 1 2 2 3
Nghost:        1818.35 ave        2348 max        1178 min
Histogram: 8 0 0 0 24 0 0 0 0 16
Neighs:              0 ave           0 max           0 min
Histogram: 48 0 0 0 0 0 0 0 0 0

Total # of neighbors = 0
Ave neighs/atom = 0
Ave special neighs/atom = 15.567568
Neighbor list builds = 54
Dangerous builds = 0
unfix           myat1
next            cpt
jump            SELF loop
variable        zdes equal  -15+0.30*(${cpt}-1)
variable        zdes equal  -15+0.30*(44-1)
variable        zave equal xcm(H2,z)
fix             mytth2 H2 spring tether ${k1} 2.5 2.5 ${zdes} 0
fix             mytth2 H2 spring tether 0.5 2.5 2.5 ${zdes} 0
fix             mytth2 H2 spring tether 0.5 2.5 2.5 -2.1 0
run             10000
Generated 0 of 1 mixed pair_coeff terms from geometric mixing rule
Per MPI rank memory allocation (min/avg/max) = 13.32 | 13.8 | 14.98 Mbytes
   Step          Temp          E_pair         E_mol          TotEng         Press     
   2600000   299.06439      368.38098      18517.524      19313.803     -73.050127    
   2601000   299.33848      365.10781      18518.936      19312.334     -160.0804     
   2602000   284.19513      367.10401      18537.589      19311.316     -164.95542    
   2603000   292.62989      376.25957      18519.09       19314.041      55.681658    
   2604000   306.54899      376.978        18505.762      19321.347      65.652529    
   2605000   296.30371      370.71442      18544.459      19339.121      17.051931    
   2606000   320.71059      369.85489      18532.21       19360.934     -113.13009    
   2607000   308.80229      369.13065      18559.441      19370.403     -97.140455    
   2608000   305.11688      374.47626      18556.066      19367.1        41.339197    
   2609000   319.24274      373.27533      18520.486      19350.531      76.33891     
   2610000   293.6375       368.302        18536.49       19324.925     -145.20463    
Loop time of 3.15524 on 48 procs for 10000 steps with 481 atoms

Performance: 13.692 ns/day, 1.753 hours/ns, 3169.332 timesteps/s, 1.524 Matom-step/s
100.0% CPU use with 48 MPI tasks x 1 OpenMP threads

MPI task timing breakdown:
Section |  min time  |  avg time  |  max time  |%varavg| %total
---------------------------------------------------------------
Pair    | 0.0034984  | 0.14596    | 0.91734    |  60.8 |  4.63
Bond    | 0.0010071  | 0.18447    | 0.87643    |  66.3 |  5.85
Neigh   | 0.0056071  | 0.0061791  | 0.0066404  |   0.4 |  0.20
Comm    | 1.1716     | 2.2744     | 2.8344     |  40.1 | 72.08
Output  | 0.0016558  | 0.0026476  | 0.0036492  |   1.2 |  0.08
Modify  | 0.13241    | 0.42244    | 1.693      |  81.1 | 13.39
Other   |            | 0.1191     |            |       |  3.78

Nlocal:        10.0208 ave          54 max           0 min
Histogram: 25 10 5 0 2 0 2 2 0 2
Nghost:        1818.35 ave        2348 max        1169 min
Histogram: 8 0 0 0 24 0 0 0 0 16
Neighs:              0 ave           0 max           0 min
Histogram: 48 0 0 0 0 0 0 0 0 0

Total # of neighbors = 0
Ave neighs/atom = 0
Ave special neighs/atom = 15.567568
Neighbor list builds = 17
Dangerous builds = 0
fix             myat1 all ave/time 1000 10 10000 v_zave v_zdes file simulation_data/abpot/${cpt}.dat
fix             myat1 all ave/time 1000 10 10000 v_zave v_zdes file simulation_data/abpot/44.dat
run             50000
Generated 0 of 1 mixed pair_coeff terms from geometric mixing rule
Per MPI rank memory allocation (min/avg/max) = 13.32 | 13.8 | 14.98 Mbytes
   Step          Temp          E_pair         E_mol          TotEng         Press     
   2610000   293.6375       368.302        18536.49       19324.925     -145.20463    
   2611000   291.24058      373.76393      18520.381      19310.849      62.763763    
   2612000   294.45697      364.78161      18523.781      19309.868     -239.83276    
   2613000   283.5238       372.21319      18535.059      19312.934      5.3400983    
   2614000   297.48319      375.62194      18515.416      19316.674      89.912159    
   2615000   291.93899      373.00335      18532.128      19322.835      12.321683    
   2616000   300.42315      363.69257      18541.154      19334.689     -252.48409    
   2617000   312.82779      367.71032      18533.365      19348.666     -24.975671    
   2618000   317.52628      371.19153      18525.258      19350.763     -45.802271    
   2619000   308.95441      372.2247       18535.657      19349.93       21.069997    
   2620000   295.93279      381.48121      18536.524      19341.423      293.15686    
   2621000   298.90063      364.58068      18530.107      19322.351     -269.89944    
   2622000   285.5121       370.56317      18525.766      19304.837     -69.532343    
   2623000   287.95608      367.73413      18511.955      19291.693     -150.73879    
   2624000   277.61914      372.48278      18522.14       19291.837     -15.578536    
   2625000   298.24062      373.2967       18502.24       19302.256      159.62762    
   2626000   299.5797       370.34083      18514.96       19313.936     -72.079325    
   2627000   301.68734      360.53704      18536.383      19328.571     -330.24495    
   2628000   309.7104       376.90373      18519.281      19339.314      157.7972     
   2629000   303.10643      375.26251      18529.338      19338.282     -55.799896    
   2630000   312.01826      372.29904      18518.507      19337.238      130.76677    
   2631000   287.30087      364.61502      18556.199      19331.88      -88.307236    
   2632000   308.51267      365.5907       18524.673      19331.68      -150.53765    
   2633000   312.76267      377.3936       18501.271      19326.162      171.7339     
   2634000   302.07066      365.30609      18521.11       19318.616     -48.562645    
   2635000   294.10752      369.02544      18525.249      19315.08      -41.620717    
   2636000   309.61321      357.20922      18513.915      19314.115     -191.55722    
   2637000   297.87708      370.65174      18519.416      19316.266      62.140584    
   2638000   295.98194      372.44461      18534.476      19330.409      7.2462875    
   2639000   319.61345      367.50256      18527.258      19352.06      -209.4808     
   2640000   313.04508      372.37631      18544.986      19365.264      48.041028    
   2641000   317.77576      365.44562      18549.16       19369.275     -216.17073    
   2642000   311.49797      375.51192      18541.592      19362.792     -46.673622    
   2643000   302.88082      371.50231      18538.398      19343.259      97.299553    
   2644000   299.01706      363.26153      18535.12       19326.212     -193.45539    
   2645000   290.90578      369.08338      18529.517      19314.825      5.8293158    
   2646000   281.18333      370.08022      18538.736      19311.13       8.1962735    
   2647000   295.28815      376.57654      18516.815      19315.886      31.112513    
   2648000   289.11937      370.45803      18542.315      19326.441     -140.70065    
   2649000   306.12351      368.11677      18529.698      19335.812     -35.721424    
   2650000   298.77219      370.49901      18540.403      19338.382     -86.587116    
   2651000   317.251        378.62952      18511.312      19343.861      179.0875     
   2652000   318.64178      374.25144      18524.757      19354.918      80.227622    
   2653000   311.50451      370.4221       18557.781      19373.9       -130.77723    
   2654000   318.19302      363.32521      18575.156      19393.748     -137.66182    
   2655000   323.75876      376.11956      18556.577      19395.927      23.329486    
   2656000   328.95339      376.57999      18536.969      19384.212      152.46463    
   2657000   310.98143      368.89845      18546.17       19360.017     -25.029283    
   2658000   310.50723      366.60941      18535.321      19346.2       -165.9819     
   2659000   294.29333      371.10908      18543.674      19335.855      7.8525185    
   2660000   305.98158      373.18774      18516.512      19327.495      71.249318    
Loop time of 16.1326 on 48 procs for 50000 steps with 481 atoms

Performance: 13.389 ns/day, 1.793 hours/ns, 3099.311 timesteps/s, 1.491 Matom-step/s
100.0% CPU use with 48 MPI tasks x 1 OpenMP threads

MPI task timing breakdown:
Section |  min time  |  avg time  |  max time  |%varavg| %total
---------------------------------------------------------------
Pair    | 0.017478   | 0.73193    | 4.6356     | 135.9 |  4.54
Bond    | 0.0050698  | 0.92327    | 4.5015     | 148.6 |  5.72
Neigh   | 0.025586   | 0.02815    | 0.030226   |   0.8 |  0.17
Comm    | 6.2575     | 11.658     | 14.547     |  90.5 | 72.26
Output  | 0.0085372  | 0.013706   | 0.018857   |   2.8 |  0.08
Modify  | 0.66252    | 2.1814     | 8.8453     | 185.9 | 13.52
Other   |            | 0.5965     |            |       |  3.70

Nlocal:        10.0208 ave          46 max           0 min
Histogram: 21 12 7 0 0 0 2 1 2 3
Nghost:        1818.35 ave        2348 max        1179 min
Histogram: 8 0 0 0 24 0 0 0 0 16
Neighs:              0 ave           0 max           0 min
Histogram: 48 0 0 0 0 0 0 0 0 0

Total # of neighbors = 0
Ave neighs/atom = 0
Ave special neighs/atom = 15.567568
Neighbor list builds = 77
Dangerous builds = 0
unfix           myat1
next            cpt
jump            SELF loop
variable        zdes equal  -15+0.30*(${cpt}-1)
variable        zdes equal  -15+0.30*(45-1)
variable        zave equal xcm(H2,z)
fix             mytth2 H2 spring tether ${k1} 2.5 2.5 ${zdes} 0
fix             mytth2 H2 spring tether 0.5 2.5 2.5 ${zdes} 0
fix             mytth2 H2 spring tether 0.5 2.5 2.5 -1.8 0
run             10000
Generated 0 of 1 mixed pair_coeff terms from geometric mixing rule
Per MPI rank memory allocation (min/avg/max) = 13.32 | 13.8 | 14.98 Mbytes
   Step          Temp          E_pair         E_mol          TotEng         Press     
   2660000   305.98158      373.18774      18516.512      19327.495      71.249318    
   2661000   296.73024      369.12659      18529.596      19323.281     -100.98754    
   2662000   294.56963      368.77674      18529.594      19319.838      17.170309    
   2663000   287.43282      363.58077      18542.301      19317.138     -222.7304     
   2664000   296.67521      373.58155      18525.417      19323.479      57.22875     
   2665000   303.63079      374.758        18527.739      19336.928      133.98106    
   2666000   296.98341      367.415        18563.043      19355.379     -170.70967    
   2667000   298.65566      363.78915      18572.608      19363.711     -217.11641    
   2668000   325.45963      371.59338      18530.654      19367.911      93.374956    
   2669000   307.09342      373.07572      18546.502      19358.964     -56.164814    
   2670000   301.82241      376.7312       18534.234      19342.809      83.689412    
Loop time of 3.15569 on 48 procs for 10000 steps with 481 atoms

Performance: 13.690 ns/day, 1.753 hours/ns, 3168.883 timesteps/s, 1.524 Matom-step/s
100.0% CPU use with 48 MPI tasks x 1 OpenMP threads

MPI task timing breakdown:
Section |  min time  |  avg time  |  max time  |%varavg| %total
---------------------------------------------------------------
Pair    | 0.0034333  | 0.14757    | 0.8862     |  60.7 |  4.68
Bond    | 0.0010129  | 0.18514    | 0.88382    |  66.5 |  5.87
Neigh   | 0.0042987  | 0.0048104  | 0.0051726  |   0.3 |  0.15
Comm    | 1.2312     | 2.2748     | 2.8434     |  39.9 | 72.09
Output  | 0.0016785  | 0.0027087  | 0.0037326  |   1.2 |  0.09
Modify  | 0.13056    | 0.42082    | 1.6829     |  80.2 | 13.34
Other   |            | 0.1198     |            |       |  3.80

Nlocal:        10.0208 ave          48 max           0 min
Histogram: 21 13 6 0 0 0 3 1 0 4
Nghost:        1818.35 ave        2347 max        1175 min
Histogram: 8 0 0 0 24 0 0 0 0 16
Neighs:              0 ave           0 max           0 min
Histogram: 48 0 0 0 0 0 0 0 0 0

Total # of neighbors = 0
Ave neighs/atom = 0
Ave special neighs/atom = 15.567568
Neighbor list builds = 13
Dangerous builds = 0
fix             myat1 all ave/time 1000 10 10000 v_zave v_zdes file simulation_data/abpot/${cpt}.dat
fix             myat1 all ave/time 1000 10 10000 v_zave v_zdes file simulation_data/abpot/45.dat
run             50000
Generated 0 of 1 mixed pair_coeff terms from geometric mixing rule
Per MPI rank memory allocation (min/avg/max) = 13.32 | 13.8 | 14.98 Mbytes
   Step          Temp          E_pair         E_mol          TotEng         Press     
   2670000   301.82241      376.7312       18534.234      19342.809      83.689412    
   2671000   303.43935      362.6158       18522.497      19319.27      -128.89796    
   2672000   290.26178      359.24693      18531.199      19305.749     -260.87011    
   2673000   283.09507      376.98362      18524.524      19306.557      126.49603    
   2674000   309.46011      381.74045      18491.992      19316.504      271.17349    
   2675000   307.66993      368.88586      18518.977      19328.073     -114.03831    
   2676000   303.18519      361.18933      18541.815      19336.798     -371.97099    
   2677000   307.36908      370.93645      18533.432      19344.149     -103.27645    
   2678000   289.87593      387.95265      18548.34       19351.044      422.62796    
   2679000   314.93338      375.78421      18530.038      19356.425     -79.773602    
   2680000   301.15061      361.06711      18554.839      19346.789     -281.59949    
   2681000   317.07198      368.01015      18508.055      19329.728      0.89860134   
   2682000   296.3553       378.41746      18511.762      19314.201      157.54059    
   2683000   284.87529      378.61441      18514.75       19300.961      164.68669    
   2684000   284.71512      362.31471      18526.653      19296.335     -319.36979    
   2685000   294.76677      365.08462      18516.314      19303.148     -253.02727    
   2686000   298.76173      377.42991      18514.812      19319.707      204.84903    
   2687000   318.72642      379.01465      18501.572      19336.617      161.95041    
   2688000   292.85538      372.36175      18549.043      19340.419     -88.549502    
   2689000   309.21094      366.84492      18537.292      19346.552     -226.47551    
   2690000   294.93948      368.32072      18553.731      19344.047     -163.15511    
   2691000   289.17187      391.24197      18531.619      19336.605      473.2741     
   2692000   302.40337      365.97616      18533.334      19331.985     -167.83961    
   2693000   290.96253      362.64761      18550.139      19329.092     -362.28637    
   2694000   297.84148      373.09738      18525.374      19324.62       84.049934    
   2695000   288.04314      375.27716      18523.393      19310.8        59.927388    
   2696000   281.88201      374.53063      18503.675      19281.519      133.96392    
   2697000   275.53765      366.25035      18510.011      19270.498     -162.7147     
   2698000   273.07019      365.55204      18517.069      19273.327     -293.01418    
   2699000   294.03184      373.26989      18489.019      19282.986      111.63038    
   2700000   273.947        373.00247      18532.501      19297.464      73.48327     
   2701000   303.44171      372.43482      18507.632      19314.228      60.825423    
   2702000   291.59807      361.00586      18547.929      19326.15      -293.63152    
   2703000   288.5237       375.14906      18544.828      19332.793     -15.978737    
   2704000   295.82593      375.14108      18540.289      19338.695     -2.8118256    
   2705000   300.50768      372.64631      18540.078      19342.687      47.576304    
   2706000   306.06414      379.34247      18528.804      19346.06      -45.001579    
   2707000   294.19358      375.55694      18551.812      19348.298     -302.49825    
   2708000   311.47779      379.57806      18515.32       19340.557      86.841595    
   2709000   299.56014      381.55479      18523.955      19334.117      281.60377    
   2710000   286.42593      370.65795      18537.224      19317.697     -233.13348    
   2711000   282.91339      359.66158      18533.006      19297.457     -329.45306    
   2712000   291.21162      381.26452      18489.983      19287.909      187.34031    
   2713000   286.14072      384.91186      18503.372      19297.691      155.13525    
   2714000   301.80998      383.69994      18500.657      19316.184      96.756943    
   2715000   299.0201       353.37262      18552.732      19333.94      -480.53082    
   2716000   297.32403      366.39219      18553.212      19345.012     -256.93868    
   2717000   314.79117      381.93199      18512.714      19345.045      252.38995    
   2718000   287.95583      378.78149      18544.072      19334.858      55.913657    
   2719000   295.64414      369.87028      18544.949      19337.824     -185.04718    
   2720000   310.5148       360.57429      18532.275      19337.13      -211.6551     
Loop time of 16.5197 on 48 procs for 50000 steps with 481 atoms

Performance: 13.075 ns/day, 1.836 hours/ns, 3026.683 timesteps/s, 1.456 Matom-step/s
100.0% CPU use with 48 MPI tasks x 1 OpenMP threads

MPI task timing breakdown:
Section |  min time  |  avg time  |  max time  |%varavg| %total
---------------------------------------------------------------
Pair    | 0.01752    | 0.73309    | 4.6156     | 136.4 |  4.44
Bond    | 0.0050751  | 0.92264    | 4.4033     | 148.5 |  5.59
Neigh   | 0.029009   | 0.031799   | 0.034034   |   0.8 |  0.19
Comm    | 6.5594     | 11.962     | 14.937     |  92.4 | 72.41
Output  | 0.0086809  | 0.013999   | 0.019223   |   2.8 |  0.08
Modify  | 0.66653    | 2.2586     | 9.1719     | 193.1 | 13.67
Other   |            | 0.5977     |            |       |  3.62

Nlocal:        10.0208 ave          49 max           0 min
Histogram: 21 13 6 0 0 0 3 2 0 3
Nghost:        1818.88 ave        2347 max        1174 min
Histogram: 8 0 0 0 24 0 0 0 0 16
Neighs:              0 ave           0 max           0 min
Histogram: 48 0 0 0 0 0 0 0 0 0

Total # of neighbors = 0
Ave neighs/atom = 0
Ave special neighs/atom = 15.567568
Neighbor list builds = 82
Dangerous builds = 0
unfix           myat1
next            cpt
jump            SELF loop
variable        zdes equal  -15+0.30*(${cpt}-1)
variable        zdes equal  -15+0.30*(46-1)
variable        zave equal xcm(H2,z)
fix             mytth2 H2 spring tether ${k1} 2.5 2.5 ${zdes} 0
fix             mytth2 H2 spring tether 0.5 2.5 2.5 ${zdes} 0
fix             mytth2 H2 spring tether 0.5 2.5 2.5 -1.5 0
run             10000
Generated 0 of 1 mixed pair_coeff terms from geometric mixing rule
Per MPI rank memory allocation (min/avg/max) = 13.32 | 13.8 | 14.98 Mbytes
   Step          Temp          E_pair         E_mol          TotEng         Press     
   2720000   310.5148       360.57429      18532.275      19337.13      -211.6551     
   2721000   300.88207      363.69431      18535.172      19329.365     -141.048      
   2722000   305.96253      371.62437      18501.108      19310.5       -58.081121    
   2723000   282.61055      378.02479      18509.68       19292.061      100.6707     
   2724000   286.86314      372.94846      18498.318      19281.707     -66.762563    
   2725000   282.94871      366.09514      18508.167      19279.102     -124.55367    
   2726000   289.19953      369.04177      18508.282      19291.107     -153.77296    
   2727000   289.53658      380.4634       18530.968      19325.697      139.50859    
   2728000   297.17209      375.889        18539.834      19340.914     -78.759669    
   2729000   313.75292      368.77952      18525.236      19342.929     -107.85748    
   2730000   302.76801      371.84992      18539.023      19344.07       5.1076873    
Loop time of 3.17945 on 48 procs for 10000 steps with 481 atoms

Performance: 13.587 ns/day, 1.766 hours/ns, 3145.202 timesteps/s, 1.513 Matom-step/s
100.0% CPU use with 48 MPI tasks x 1 OpenMP threads

MPI task timing breakdown:
Section |  min time  |  avg time  |  max time  |%varavg| %total
---------------------------------------------------------------
Pair    | 0.003492   | 0.14654    | 0.97251    |  61.3 |  4.61
Bond    | 0.0010091  | 0.18431    | 0.87639    |  66.4 |  5.80
Neigh   | 0.0070629  | 0.0077808  | 0.0083429  |   0.4 |  0.24
Comm    | 1.1292     | 2.3084     | 2.8574     |  39.9 | 72.60
Output  | 0.0016818  | 0.0026873  | 0.0037009  |   1.2 |  0.08
Modify  | 0.128      | 0.41069    | 1.694      |  81.1 | 12.92
Other   |            | 0.119      |            |       |  3.74

Nlocal:        10.0208 ave          44 max           0 min
Histogram: 24 7 8 1 0 0 0 2 2 4
Nghost:        1818.35 ave        2347 max        1179 min
Histogram: 8 0 0 0 24 0 0 0 0 16
Neighs:              0 ave           0 max           0 min
Histogram: 48 0 0 0 0 0 0 0 0 0

Total # of neighbors = 0
Ave neighs/atom = 0
Ave special neighs/atom = 15.567568
Neighbor list builds = 22
Dangerous builds = 0
fix             myat1 all ave/time 1000 10 10000 v_zave v_zdes file simulation_data/abpot/${cpt}.dat
fix             myat1 all ave/time 1000 10 10000 v_zave v_zdes file simulation_data/abpot/46.dat
run             50000
Generated 0 of 1 mixed pair_coeff terms from geometric mixing rule
Per MPI rank memory allocation (min/avg/max) = 13.32 | 13.8 | 14.98 Mbytes
   Step          Temp          E_pair         E_mol          TotEng         Press     
   2730000   302.76801      371.84992      18539.023      19344.07       5.1076873    
   2731000   297.54461      370.16347      18551.202      19347.089     -79.704488    
   2732000   307.0019       379.05492      18523.56       19341.87       102.57196    
   2733000   298.31393      363.76417      18537.288      19327.876     -214.69205    
   2734000   280.11743      365.99333      18541.838      19308.62      -222.24517    
   2735000   298.97424      380.90494      18494.192      19302.866      236.82545    
   2736000   305.98778      374.53803      18491.874      19304.216     -46.424792    
   2737000   301.09447      370.95749      18507.193      19308.953     -25.078967    
   2738000   312.91262      362.47559      18511.843      19322.031     -226.21357    
   2739000   323.48543      374.38078      18511.482      19348.702      61.032833    
   2740000   299.3401       390.84065      18544.643      19363.776      383.7758     
   2741000   312.35979      370.21394      18546.317      19363.451     -165.7784     
   2742000   309.27223      366.92842      18549.269      19358.701     -194.96539    
   2743000   306.75919      370.45969      18538.909      19348.277      4.6889941    
   2744000   306.5336       378.2226       18520.577      19337.385      139.21329    
   2745000   298.62002      378.19128      18517.364      19322.817      127.24031    
   2746000   278.07117      361.51301      18555.908      19315.282     -377.46414    
   2747000   303.01333      377.9526       18504.201      19315.702      165.27133    
   2748000   291.0631       369.57313      18531.521      19317.544     -35.049302    
   2749000   281.30918      377.9717       18539.358      19319.824      87.637021    
   2750000   292.69478      372.92377      18531.84       19323.548     -10.48873     
   2751000   302.65673      365.28915      18536.096      19334.423     -258.64504    
   2752000   320.69422      378.52608      18520.96       19358.332      201.96243    
   2753000   326.56021      377.47848      18525.451      19370.168      232.84316    
   2754000   325.79477      370.26133      18537.431      19373.835     -77.201989    
   2755000   318.10745      371.9758       18537.065      19364.185     -78.348935    
   2756000   304.52507      372.70143      18535.207      19343.619     -156.57275    
   2757000   301.50068      377.41912      18519.4        19328.203      119.38655    
   2758000   292.8111       372.24763      18527.652      19318.851      126.4765     
   2759000   309.1593       367.17116      18508.898      19318.411     -90.01078     
   2760000   300.03931      364.93283      18523.75       19317.976     -171.83435    
   2761000   281.45277      374.83127      18537.591      19315.122     -35.142686    
   2762000   309.91407      383.23895      18490.548      19317.208      233.48       
   2763000   292.18243      374.05644      18528.638      19320.746      47.851759    
   2764000   297.96933      357.05848      18549.398      19332.788     -308.14517    
   2765000   327.29517      368.3671       18513.054      19349.711     -89.521369    
   2766000   309.80775      376.10776      18540.565      19359.943      102.08275    
   2767000   321.21903      377.28571      18524.53       19361.412      89.582338    
   2768000   301.76172      369.6461       18548.336      19349.74       28.407825    
   2769000   304.66478      360.99069      18530.973      19327.874     -399.61374    
   2770000   284.0194       371.24934      18531.366      19308.988      26.569678    
   2771000   293.83726      373.01146      18508.322      19301.753     -39.091661    
   2772000   292.90095      371.25651      18511.43       19301.766     -29.324279    
   2773000   290.01392      366.97511      18524.297      19306.221     -93.503322    
   2774000   294.62561      365.25803      18527.981      19314.786     -227.44879    
   2775000   320.31997      376.3758       18492.15       19326.836      121.16213    
   2776000   295.47993      377.06416      18536.502      19336.336      99.96302     
   2777000   321.44967      371.24965      18516.967      19348.144     -30.763338    
   2778000   324.60849      369.17366      18529.265      19362.885     -20.138496    
   2779000   308.87392      366.44722      18568.299      19376.68      -101.71554    
   2780000   310.17774      379.3437       18560.133      19383.276      197.87684    
Loop time of 16.4754 on 48 procs for 50000 steps with 481 atoms

Performance: 13.110 ns/day, 1.831 hours/ns, 3034.825 timesteps/s, 1.460 Matom-step/s
100.0% CPU use with 48 MPI tasks x 1 OpenMP threads

MPI task timing breakdown:
Section |  min time  |  avg time  |  max time  |%varavg| %total
---------------------------------------------------------------
Pair    | 0.017828   | 0.7314     | 4.7341     | 136.7 |  4.44
Bond    | 0.0051363  | 0.9233     | 4.286      | 148.9 |  5.60
Neigh   | 0.027757   | 0.030464   | 0.032661   |   0.8 |  0.18
Comm    | 6.307      | 11.949     | 14.911     |  91.9 | 72.53
Output  | 0.0086225  | 0.013703   | 0.018639   |   2.7 |  0.08
Modify  | 0.66518    | 2.2297     | 9.0704     | 191.6 | 13.53
Other   |            | 0.5979     |            |       |  3.63

Nlocal:        10.0208 ave          55 max           0 min
Histogram: 22 16 2 1 1 1 1 0 1 3
Nghost:        1818.35 ave        2347 max        1173 min
Histogram: 8 0 0 0 24 0 0 0 0 16
Neighs:              0 ave           0 max           0 min
Histogram: 48 0 0 0 0 0 0 0 0 0

Total # of neighbors = 0
Ave neighs/atom = 0
Ave special neighs/atom = 15.567568
Neighbor list builds = 80
Dangerous builds = 0
unfix           myat1
next            cpt
jump            SELF loop
variable        zdes equal  -15+0.30*(${cpt}-1)
variable        zdes equal  -15+0.30*(47-1)
variable        zave equal xcm(H2,z)
fix             mytth2 H2 spring tether ${k1} 2.5 2.5 ${zdes} 0
fix             mytth2 H2 spring tether 0.5 2.5 2.5 ${zdes} 0
fix             mytth2 H2 spring tether 0.5 2.5 2.5 -1.2 0
run             10000
Generated 0 of 1 mixed pair_coeff terms from geometric mixing rule
Per MPI rank memory allocation (min/avg/max) = 13.32 | 13.8 | 14.98 Mbytes
   Step          Temp          E_pair         E_mol          TotEng         Press     
   2780000   310.17774      379.3437       18560.133      19383.276      197.87684    
   2781000   317.24837      370.86455      18553.457      19378.237     -23.70958     
   2782000   321.8514       365.47901      18519.976      19345.957     -59.207074    
   2783000   297.4064       373.66832      18523.869      19323.063      112.25152    
   2784000   281.34859      371.87782      18539.334      19313.762     -37.078972    
   2785000   303.92926      373.08375      18505.471      19313.414      48.418886    
   2786000   281.34476      367.58438      18542.11       19312.239     -176.37023    
   2787000   303.06032      369.92066      18513.833      19317.369     -32.768228    
   2788000   294.14723      370.04088      18530.01       19320.914     -46.317735    
   2789000   290.94675      367.62686      18541.385      19325.295     -12.432753    
   2790000   302.73918      362.20552      18543.241      19338.603     -204.7501     
Loop time of 3.28417 on 48 procs for 10000 steps with 481 atoms

Performance: 13.154 ns/day, 1.825 hours/ns, 3044.907 timesteps/s, 1.465 Matom-step/s
100.0% CPU use with 48 MPI tasks x 1 OpenMP threads

MPI task timing breakdown:
Section |  min time  |  avg time  |  max time  |%varavg| %total
---------------------------------------------------------------
Pair    | 0.0034663  | 0.14638    | 0.95778    |  61.7 |  4.46
Bond    | 0.0010211  | 0.18396    | 0.93083    |  66.7 |  5.60
Neigh   | 0.0027599  | 0.0030355  | 0.0032273  |   0.2 |  0.09
Comm    | 1.2696     | 2.3798     | 2.976      |  41.4 | 72.46
Output  | 0.001715   | 0.0026871  | 0.0036625  |   1.2 |  0.08
Modify  | 0.13122    | 0.44895    | 1.8259     |  86.1 | 13.67
Other   |            | 0.1193     |            |       |  3.63

Nlocal:        10.0208 ave          55 max           0 min
Histogram: 27 7 6 0 2 0 1 2 2 1
Nghost:        1818.35 ave        2347 max        1180 min
Histogram: 8 0 0 0 24 0 0 0 0 16
Neighs:              0 ave           0 max           0 min
Histogram: 48 0 0 0 0 0 0 0 0 0

Total # of neighbors = 0
Ave neighs/atom = 0
Ave special neighs/atom = 15.567568
Neighbor list builds = 8
Dangerous builds = 0
fix             myat1 all ave/time 1000 10 10000 v_zave v_zdes file simulation_data/abpot/${cpt}.dat
fix             myat1 all ave/time 1000 10 10000 v_zave v_zdes file simulation_data/abpot/47.dat
run             50000
Generated 0 of 1 mixed pair_coeff terms from geometric mixing rule
Per MPI rank memory allocation (min/avg/max) = 13.32 | 13.8 | 14.98 Mbytes
   Step          Temp          E_pair         E_mol          TotEng         Press     
   2790000   302.73918      362.20552      18543.241      19338.603     -204.7501     
   2791000   304.86829      376.05895      18544.524      19356.785      126.32444    
   2792000   303.84281      370.59946      18562.446      19367.78      -101.29957    
   2793000   328.67919      368.85732      18528.714      19367.842      27.68065     
   2794000   309.387        366.77226      18534.366      19343.805     -214.07517    
   2795000   290.16404      370.76511      18530.422      19316.351     -2.2137135    
   2796000   302.67404      374.79428      18500.888      19308.745      97.354444    
   2797000   294.05767      371.92227      18516.657      19309.314     -84.22242     
   2798000   292.72825      369.95786      18521.45       19310.241     -51.190099    
   2799000   297.8347       367.28568      18523.266      19316.69      -118.25837    
   2800000   303.95932      376.1728       18511.079      19322.154      162.40346    
   2801000   302.4389       371.32733      18522.009      19326.062     -83.03042     
   2802000   325.22227      364.12586      18508.832      19338.282     -143.61525    
   2803000   318.76689      373.61819      18522.463      19352.169      37.919095    
   2804000   323.29169      370.33846      18530.132      19363.033     -23.655069    
   2805000   304.405        374.62343      18556.805      19366.968     -11.547882    
   2806000   298.09137      371.83434      18559.668      19358.008     -75.613896    
   2807000   305.60836      369.25404      18525.332      19331.848     -151.998      
   2808000   303.19022      379.07147      18504.183      19317.056      355.50454    
   2809000   303.73852      365.10627      18506.891      19306.583     -192.1961     
   2810000   296.7183       374.13682      18509.219      19307.897      28.510003    
   2811000   295.72171      376.43664      18515.021      19314.573     -8.6678762    
   2812000   282.39824      372.86313      18541.342      19318.257      6.3753022    
   2813000   303.81307      380.03295      18516.199      19330.924      250.93888    
   2814000   318.422        368.89866      18522.939      19347.432     -118.17519    
   2815000   317.01532      365.3248       18539.79       19358.697     -179.79808    
   2816000   311.65608      372.22579      18549.171      19367.31       87.523073    
   2817000   320.64624      373.3269       18537.355      19369.459      58.882036    
   2818000   311.08149      377.86302      18523.748      19346.703      130.57453    
   2819000   300.10609      363.55414      18521.97       19314.913     -207.05598    
   2820000   300.96096      362.39286      18510.64       19303.645     -186.27655    
   2821000   309.94626      372.28188      18485.318      19301.068      116.23248    
   2822000   279.83672      372.21571      18523.497      19296.1        45.841602    
   2823000   295.68674      368.49587      18510.585      19302.146     -71.791763    
   2824000   300.22644      369.19072      18517.166      19315.918      28.118433    
   2825000   310.0437       363.56179      18520.233      19327.402     -177.2822     
   2826000   308.24415      371.36451      18521.177      19333.574     -120.36342    
   2827000   313.5566       383.38887      18507.889      19339.911      305.07599    
   2828000   303.79435      364.37874      18545.355      19344.399     -284.45723    
   2829000   308.15314      368.77347      18533.589      19343.265     -145.85314    
   2830000   303.57572      370.00704      18518.493      19322.853     -168.7961     
   2831000   301.96044      368.76066      18497.743      19298.546      45.387505    
   2832000   289.80786      371.64001      18501.862      19288.156     -109.87905    
   2833000   294.80155      368.90711      18494.249      19284.955     -7.2177496    
   2834000   297.40879      363.55231      18501.959      19291.041     -236.51306    
   2835000   294.46114      373.25011      18510.563      19305.125      26.620846    
   2836000   315.44178      373.30266      18498.091      19322.724      72.736133    
   2837000   311.47601      374.67773      18512.297      19332.631      117.65665    
   2838000   303.87887      372.79145      18527.278      19334.856     -18.907822    
   2839000   301.69716      370.76149      18526.273      19328.7       -15.215031    
   2840000   319.64337      370.19913      18497.811      19325.353      68.521934    
Loop time of 16.4334 on 48 procs for 50000 steps with 481 atoms

Performance: 13.144 ns/day, 1.826 hours/ns, 3042.577 timesteps/s, 1.463 Matom-step/s
100.0% CPU use with 48 MPI tasks x 1 OpenMP threads

MPI task timing breakdown:
Section |  min time  |  avg time  |  max time  |%varavg| %total
---------------------------------------------------------------
Pair    | 0.016964   | 0.72057    | 4.8664     | 137.1 |  4.38
Bond    | 0.0049764  | 0.90521    | 4.1816     | 147.2 |  5.51
Neigh   | 0.029806   | 0.032698   | 0.035174   |   0.8 |  0.20
Comm    | 6.1141     | 11.906     | 14.839     |  90.3 | 72.45
Output  | 0.0080731  | 0.013441   | 0.0184     |   2.8 |  0.08
Modify  | 0.67476    | 2.2671     | 8.9532     | 187.9 | 13.80
Other   |            | 0.5881     |            |       |  3.58

Nlocal:        10.0208 ave          45 max           0 min
Histogram: 24 6 10 0 0 0 1 1 3 3
Nghost:        1818.35 ave        2347 max        1179 min
Histogram: 8 0 0 0 24 0 0 0 0 16
Neighs:              0 ave           0 max           0 min
Histogram: 48 0 0 0 0 0 0 0 0 0

Total # of neighbors = 0
Ave neighs/atom = 0
Ave special neighs/atom = 15.567568
Neighbor list builds = 90
Dangerous builds = 0
unfix           myat1
next            cpt
jump            SELF loop
variable        zdes equal  -15+0.30*(${cpt}-1)
variable        zdes equal  -15+0.30*(48-1)
variable        zave equal xcm(H2,z)
fix             mytth2 H2 spring tether ${k1} 2.5 2.5 ${zdes} 0
fix             mytth2 H2 spring tether 0.5 2.5 2.5 ${zdes} 0
fix             mytth2 H2 spring tether 0.5 2.5 2.5 -0.9 0
run             10000
Generated 0 of 1 mixed pair_coeff terms from geometric mixing rule
Per MPI rank memory allocation (min/avg/max) = 13.32 | 13.8 | 14.98 Mbytes
   Step          Temp          E_pair         E_mol          TotEng         Press     
   2840000   319.64337      370.19913      18497.811      19325.353      68.521934    
   2841000   281.12706      374.10597      18541.718      19318.058     -78.340491    
   2842000   292.24566      375.00879      18531.449      19324.599     -6.8384463    
   2843000   307.50089      375.88244      18512.651      19328.502      72.025682    
   2844000   288.45784      364.13259      18545.292      19322.146     -279.5541     
   2845000   284.78362      366.5326       18546.881      19320.879     -160.41977    
   2846000   296.16366      376.48461      18520.598      19320.83       95.947378    
   2847000   294.32705      373.12431      18526.474      19320.718     -30.979477    
   2848000   306.71258      375.07677      18508.012      19321.929      84.834801    
   2849000   310.26681      362.65023      18516.612      19323.188     -137.44799    
   2850000   300.77183      365.67632      18524.766      19320.783     -199.6599     
Loop time of 3.44131 on 48 procs for 10000 steps with 481 atoms

Performance: 12.553 ns/day, 1.912 hours/ns, 2905.869 timesteps/s, 1.398 Matom-step/s
100.0% CPU use with 48 MPI tasks x 1 OpenMP threads

MPI task timing breakdown:
Section |  min time  |  avg time  |  max time  |%varavg| %total
---------------------------------------------------------------
Pair    | 0.0036539  | 0.14871    | 1.0419     |  63.1 |  4.32
Bond    | 0.001046   | 0.1861     | 0.97235    |  67.1 |  5.41
Neigh   | 0.0063843  | 0.0070609  | 0.007627   |   0.4 |  0.21
Comm    | 1.1541     | 2.496      | 3.0979     |  41.7 | 72.53
Output  | 0.0018096  | 0.0028861  | 0.0039519  |   1.3 |  0.08
Modify  | 0.14015    | 0.47952    | 1.9056     |  86.1 | 13.93
Other   |            | 0.1211     |            |       |  3.52

Nlocal:        10.0208 ave          44 max           0 min
Histogram: 24 6 8 2 0 0 0 1 4 3
Nghost:        1818.35 ave        2347 max        1179 min
Histogram: 8 0 0 0 24 0 0 0 0 16
Neighs:              0 ave           0 max           0 min
Histogram: 48 0 0 0 0 0 0 0 0 0

Total # of neighbors = 0
Ave neighs/atom = 0
Ave special neighs/atom = 15.567568
Neighbor list builds = 19
Dangerous builds = 0
fix             myat1 all ave/time 1000 10 10000 v_zave v_zdes file simulation_data/abpot/${cpt}.dat
fix             myat1 all ave/time 1000 10 10000 v_zave v_zdes file simulation_data/abpot/48.dat
run             50000
Generated 0 of 1 mixed pair_coeff terms from geometric mixing rule
Per MPI rank memory allocation (min/avg/max) = 13.32 | 13.8 | 14.98 Mbytes
   Step          Temp          E_pair         E_mol          TotEng         Press     
   2850000   300.77183      365.67632      18524.766      19320.783     -199.6599     
   2851000   320.85443      373.10123      18486.91       19319.086     -14.029136    
   2852000   295.37705      372.14208      18525.128      19319.892     -35.109633    
   2853000   304.09391      369.26638      18514.515      19318.876     -178.02756    
   2854000   316.03829      373.42216      18491.26       19316.866      184.07666    
   2855000   313.03965      366.55578      18499.436      19313.885     -103.18251    
   2856000   280.2287       367.97042      18532.009      19300.927     -215.42365    
   2857000   285.74126      374.65062      18507.766      19291.252      42.92919     
   2858000   286.99686      370.63814      18504.677      19285.947      87.727355    
   2859000   288.08416      367.44916      18504.432      19284.069     -216.09813    
   2860000   286.24568      368.46239      18518.122      19296.141     -39.845062    
   2861000   304.70654      374.19828      18507.631      19317.8        101.39779    
   2862000   295.72157      370.62319      18535.528      19329.266     -114.60229    
   2863000   304.44666      378.01159      18521.351      19334.961      265.48018    
   2864000   317.59873      363.84426      18518.205      19336.466     -171.74298    
   2865000   303.82228      369.0766       18528.804      19332.586     -181.11828    
   2866000   310.6435       374.2879       18506.462      19325.215      108.12922    
   2867000   313.0984       373.96958      18487.882      19309.829      63.488013    
   2868000   286.28591      373.47497      18516.121      19299.211     -49.550351    
   2869000   300.19875      365.39255      18496.66       19291.573     -105.30041    
   2870000   282.18632      367.12439      18519.078      19289.951     -158.21766    
   2871000   280.47166      373.72352      18515.669      19290.689     -67.376224    
   2872000   276.69005      382.99515      18521.874      19300.754      96.552414    
   2873000   276.52603      371.54977      18545.234      19312.434     -118.37531    
   2874000   302.04825      363.79187      18524.148      19320.107     -286.80479    
   2875000   292.29583      370.64177      18534.208      19323.064      52.925563    
   2876000   300.6318       373.96641      18526.354      19330.462     -16.545316    
   2877000   286.38535      378.73522      18545.661      19334.153      1.9244887    
   2878000   300.93381      364.95321      18541.969      19337.495     -257.81096    
   2879000   303.90684      367.9525       18538.832      19341.611     -109.64965    
   2880000   301.89486      379.24779      18523.582      19334.777      123.94531    
   2881000   304.7507       374.09375      18503.657      19313.785      56.89947     
   2882000   287.22461      367.11835      18515.068      19293.144     -182.24793    
   2883000   299.77365      375.82153      18487.027      19291.761     -58.384738    
   2884000   294.78791      375.78408      18486.744      19284.308      55.766709    
   2885000   292.75771      374.65761      18496.271      19289.803      43.133863    
   2886000   308.12179      374.39529      18491.112      19306.365     -29.373034    
   2887000   310.56867      358.86017      18518.216      19321.435     -375.05112    
   2888000   321.75166      374.15551      18504.046      19338.56       80.528516    
   2889000   308.24356      374.75285      18525.914      19341.698      244.35051    
   2890000   315.64584      375.19237      18511.719      19338.534      94.981155    
   2891000   300.59772      365.01193      18539.247      19334.351     -335.60131    
   2892000   320.85479      369.055        18500.908      19329.038      39.67616     
   2893000   314.15284      375.4074       18496.215      19321.109      123.47603    
   2894000   301.08802      372.21024      18510.058      19313.061      38.266322    
   2895000   278.45659      367.75008      18541.709      19307.871     -214.42143    
   2896000   297.256        369.23338      18506.867      19301.411     -91.412507    
   2897000   301.19674      371.76074      18494.583      19297.292      23.116548    
   2898000   297.98262      371.97684      18494.302      19292.629      141.73351    
   2899000   292.79432      366.49964      18506.389      19291.815     -50.46803     
   2900000   293.24533      360.27956      18517.587      19297.439     -385.63932    
Loop time of 16.3702 on 48 procs for 50000 steps with 481 atoms

Performance: 13.195 ns/day, 1.819 hours/ns, 3054.339 timesteps/s, 1.469 Matom-step/s
100.0% CPU use with 48 MPI tasks x 1 OpenMP threads

MPI task timing breakdown:
Section |  min time  |  avg time  |  max time  |%varavg| %total
---------------------------------------------------------------
Pair    | 0.017476   | 0.72025    | 4.726      | 135.3 |  4.40
Bond    | 0.0049838  | 0.90529    | 4.249      | 146.7 |  5.53
Neigh   | 0.030463   | 0.03352    | 0.036205   |   0.8 |  0.20
Comm    | 6.4111     | 11.878     | 14.679     |  89.0 | 72.56
Output  | 0.0084648  | 0.014095   | 0.019371   |   2.9 |  0.09
Modify  | 0.64681    | 2.2278     | 8.9033     | 185.7 | 13.61
Other   |            | 0.5914     |            |       |  3.61

Nlocal:        10.0208 ave          50 max           0 min
Histogram: 26 7 6 1 0 0 2 2 3 1
Nghost:        1817.73 ave        2345 max        1173 min
Histogram: 8 0 0 0 24 0 0 0 0 16
Neighs:              0 ave           0 max           0 min
Histogram: 48 0 0 0 0 0 0 0 0 0

Total # of neighbors = 0
Ave neighs/atom = 0
Ave special neighs/atom = 15.567568
Neighbor list builds = 92
Dangerous builds = 0
unfix           myat1
next            cpt
jump            SELF loop
variable        zdes equal  -15+0.30*(${cpt}-1)
variable        zdes equal  -15+0.30*(49-1)
variable        zave equal xcm(H2,z)
fix             mytth2 H2 spring tether ${k1} 2.5 2.5 ${zdes} 0
fix             mytth2 H2 spring tether 0.5 2.5 2.5 ${zdes} 0
fix             mytth2 H2 spring tether 0.5 2.5 2.5 -0.600000000000001 0
run             10000
Generated 0 of 1 mixed pair_coeff terms from geometric mixing rule
Per MPI rank memory allocation (min/avg/max) = 13.32 | 13.8 | 14.98 Mbytes
   Step          Temp          E_pair         E_mol          TotEng         Press     
   2900000   293.24533      360.27956      18517.587      19297.439     -385.63932    
   2901000   306.04248      374.05356      18498.752      19310.688      129.98955    
   2902000   303.36535      379.30351      18512.57       19325.925      212.62083    
   2903000   314.80968      365.2723       18523.4        19339.099     -175.65902    
   2904000   323.24706      364.39162      18516.936      19343.826     -95.965756    
   2905000   304.03756      368.45578      18532.966      19336.436     -126.41001    
   2906000   297.52562      379.7263       18518.515      19323.937      155.3109     
   2907000   305.38129      373.49176      18494.311      19304.739      161.91063    
   2908000   283.08754      363.67538      18523.456      19292.17      -88.249541    
   2909000   302.46513      356.8143       18499.982      19289.56      -299.24449    
   2910000   292.14644      376.02055      18492.633      19286.653      147.01223    
Loop time of 3.22076 on 48 procs for 10000 steps with 481 atoms

Performance: 13.413 ns/day, 1.789 hours/ns, 3104.860 timesteps/s, 1.493 Matom-step/s
100.0% CPU use with 48 MPI tasks x 1 OpenMP threads

MPI task timing breakdown:
Section |  min time  |  avg time  |  max time  |%varavg| %total
---------------------------------------------------------------
Pair    | 0.0033586  | 0.14182    | 0.92381    |  59.8 |  4.40
Bond    | 0.00097154 | 0.17895    | 0.92229    |  65.5 |  5.56
Neigh   | 0.005617   | 0.006159   | 0.0066392  |   0.4 |  0.19
Comm    | 1.2324     | 2.3355     | 2.9101     |  39.1 | 72.51
Output  | 0.0016366  | 0.0027731  | 0.0038285  |   1.3 |  0.09
Modify  | 0.13066    | 0.43875    | 1.7321     |  81.1 | 13.62
Other   |            | 0.1168     |            |       |  3.63

Nlocal:        10.0208 ave          45 max           0 min
Histogram: 24 8 5 3 0 0 0 3 2 3
Nghost:        1818.35 ave        2347 max        1178 min
Histogram: 8 0 0 0 24 0 0 0 0 16
Neighs:              0 ave           0 max           0 min
Histogram: 48 0 0 0 0 0 0 0 0 0

Total # of neighbors = 0
Ave neighs/atom = 0
Ave special neighs/atom = 15.567568
Neighbor list builds = 17
Dangerous builds = 0
fix             myat1 all ave/time 1000 10 10000 v_zave v_zdes file simulation_data/abpot/${cpt}.dat
fix             myat1 all ave/time 1000 10 10000 v_zave v_zdes file simulation_data/abpot/49.dat
run             50000
Generated 0 of 1 mixed pair_coeff terms from geometric mixing rule
Per MPI rank memory allocation (min/avg/max) = 13.32 | 13.8 | 14.98 Mbytes
   Step          Temp          E_pair         E_mol          TotEng         Press     
   2910000   292.14644      376.02055      18492.633      19286.653      147.01223    
   2911000   310.30872      377.86877      18467.952      19289.807      209.34463    
   2912000   294.79167      366.82158      18509.566      19298.173     -144.95543    
   2913000   311.92472      366.92372      18489.232      19302.454     -94.749202    
   2914000   294.0142       369.29241      18521.891      19311.856     -108.14501    
   2915000   297.76748      379.11452      18515.281      19320.438      94.244772    
   2916000   298.53691      371.25531      18524.386      19322.784     -109.19652    
   2917000   288.79337      367.18652      18541.406      19321.795     -234.3853     
   2918000   301.55449      367.02988      18515.58       19314.071     -238.11558    
   2919000   291.87674      372.63585      18511.598      19301.848     -85.06965     
   2920000   300.19428      374.20842      18483.613      19287.336      81.539035    
   2921000   290.32517      368.96484      18491.28       19275.639     -62.440108    
   2922000   294.89928      361.94642      18488.33       19272.215     -276.11798    
   2923000   280.81781      375.66168      18497.61       19275.063      162.2739     
   2924000   293.22858      373.72788      18493.416      19286.692      176.18708    
   2925000   288.89562      364.34769      18528.137      19305.833     -95.920187    
   2926000   294.64042      364.9796       18537.296      19323.844     -191.73175    
   2927000   295.54106      373.46745      18534.869      19331.193      49.968071    
   2928000   297.43798      379.707        18523.854      19329.132      174.84025    
   2929000   307.48956      368.19397      18516.329      19324.476      56.007152    
   2930000   305.73964      361.67527      18514.322      19313.446     -233.50702    
   2931000   311.9958       370.46587      18487.73       19304.596     -14.736316    
   2932000   289.86026      375.92722      18502.241      19292.897      136.94805    
   2933000   275.99077      376.18942      18508.916      19279.99      -17.089473    
   2934000   285.56279      364.11722      18496.769      19269.466     -104.00513    
   2935000   280.91566      368.04624      18486.781      19256.758     -124.72904    
   2936000   282.42239      368.97693      18475.375      19248.439     -114.38186    
   2937000   285.32288      377.6298       18471.838      19257.704      173.29168    
   2938000   275.42785      367.09771      18523.221      19284.398     -114.8812     
   2939000   314.03927      369.93072      18482.75       19302.005     -154.23871    
   2940000   302.06662      365.5787       18512.735      19310.507     -183.92497    
   2941000   317.73202      377.64502      18486.255      19318.508      169.99351    
   2942000   309.58609      383.18109      18499.532      19325.666      266.56393    
   2943000   307.7503       361.887        18524.937      19327.15      -268.80837    
   2944000   301.98549      366.48631      18528.821      19327.385     -49.984166    
   2945000   296.72881      371.49219      18528.748      19324.796     -48.467788    
   2946000   304.70799      382.58503      18499.765      19318.322      178.01154    
   2947000   303.00603      374.22829      18494.578      19302.344      91.15868     
   2948000   280.05306      359.04832      18524.875      19284.62      -347.66333    
   2949000   269.07385      366.87796      18524.904      19276.77      -173.54163    
   2950000   283.27276      378.57808      18493.462      19277.343      226.51815    
   2951000   297.15653      373.63196      18489.968      19288.768      17.853262    
   2952000   287.17087      372.08984      18524.266      19307.237     -101.48902    
   2953000   293.88098      362.15273      18539.089      19321.724     -285.77718    
   2954000   305.81537      373.11135      18516.738      19327.407      68.746019    
   2955000   301.7054       379.45511      18512.125      19323.256      110.90968    
   2956000   316.6295       375.10962      18491.655      19319.794      104.21494    
   2957000   297.61968      362.62854      18528.218      19316.678     -289.52113    
   2958000   307.51592      371.31091      18499.845      19311.146      59.268718    
   2959000   289.98325      374.20346      18513.429      19302.538      142.30567    
   2960000   305.58927      369.03751      18482.889      19289.16       2.289841     
Loop time of 16.0188 on 48 procs for 50000 steps with 481 atoms

Performance: 13.484 ns/day, 1.780 hours/ns, 3121.323 timesteps/s, 1.501 Matom-step/s
100.0% CPU use with 48 MPI tasks x 1 OpenMP threads

MPI task timing breakdown:
Section |  min time  |  avg time  |  max time  |%varavg| %total
---------------------------------------------------------------
Pair    | 0.016707   | 0.71033    | 4.7196     | 135.3 |  4.43
Bond    | 0.0048864  | 0.89493    | 4.2351     | 146.2 |  5.59
Neigh   | 0.021723   | 0.023791   | 0.025686   |   0.7 |  0.15
Comm    | 5.8978     | 11.635     | 14.468     |  88.4 | 72.63
Output  | 0.0079883  | 0.013533   | 0.01864    |   2.9 |  0.08
Modify  | 0.66476    | 2.1594     | 8.532      | 182.9 | 13.48
Other   |            | 0.5818     |            |       |  3.63

Nlocal:        10.0208 ave          50 max           0 min
Histogram: 26 7 7 0 1 0 1 3 2 1
Nghost:        1818.35 ave        2347 max        1181 min
Histogram: 8 0 0 0 24 0 0 0 0 16
Neighs:              0 ave           0 max           0 min
Histogram: 48 0 0 0 0 0 0 0 0 0

Total # of neighbors = 0
Ave neighs/atom = 0
Ave special neighs/atom = 15.567568
Neighbor list builds = 66
Dangerous builds = 0
unfix           myat1
next            cpt
jump            SELF loop
variable        zdes equal  -15+0.30*(${cpt}-1)
variable        zdes equal  -15+0.30*(50-1)
variable        zave equal xcm(H2,z)
fix             mytth2 H2 spring tether ${k1} 2.5 2.5 ${zdes} 0
fix             mytth2 H2 spring tether 0.5 2.5 2.5 ${zdes} 0
fix             mytth2 H2 spring tether 0.5 2.5 2.5 -0.300000000000001 0
run             10000
Generated 0 of 1 mixed pair_coeff terms from geometric mixing rule
Per MPI rank memory allocation (min/avg/max) = 13.32 | 13.8 | 14.98 Mbytes
   Step          Temp          E_pair         E_mol          TotEng         Press     
   2960000   305.58927      369.03751      18482.889      19289.16       2.289841     
   2961000   287.43194      366.8769       18500.712      19278.844     -100.8785     
   2962000   271.46594      367.48051      18516.998      19272.889     -163.41747    
   2963000   284.93605      370.83812      18499.347      19277.868      54.945419    
   2964000   291.49523      378.87994      18499.987      19295.936      221.24675    
   2965000   303.51962      355.65193      18531.295      19321.219     -467.80001    
   2966000   305.25241      372.43502      18525.131      19334.317     -27.29772     
   2967000   310.60279      371.0462       18523.046      19338.499      12.861918    
   2968000   295.63491      375.23332      18537.061      19335.285      87.372677    
   2969000   294.79247      369.13558      18536.189      19327.11      -79.761101    
   2970000   309.00693      364.30973      18510.549      19316.982     -190.32544    
Loop time of 3.31203 on 48 procs for 10000 steps with 481 atoms

Performance: 13.043 ns/day, 1.840 hours/ns, 3019.293 timesteps/s, 1.452 Matom-step/s
100.0% CPU use with 48 MPI tasks x 1 OpenMP threads

MPI task timing breakdown:
Section |  min time  |  avg time  |  max time  |%varavg| %total
---------------------------------------------------------------
Pair    | 0.0033197  | 0.14193    | 0.95949    |  61.0 |  4.29
Bond    | 0.00098827 | 0.17924    | 0.85644    |  65.6 |  5.41
Neigh   | 0.0042136  | 0.0046006  | 0.0049571  |   0.3 |  0.14
Comm    | 1.2439     | 2.4213     | 3.0082     |  40.9 | 73.11
Output  | 0.0016503  | 0.0027099  | 0.0036887  |   1.2 |  0.08
Modify  | 0.12981    | 0.44581    | 1.8045     |  87.0 | 13.46
Other   |            | 0.1165     |            |       |  3.52

Nlocal:        10.0208 ave          60 max           0 min
Histogram: 25 13 2 2 0 2 0 1 2 1
Nghost:        1818.88 ave        2346 max        1163 min
Histogram: 8 0 0 0 24 0 0 0 0 16
Neighs:              0 ave           0 max           0 min
Histogram: 48 0 0 0 0 0 0 0 0 0

Total # of neighbors = 0
Ave neighs/atom = 0
Ave special neighs/atom = 15.567568
Neighbor list builds = 12
Dangerous builds = 0
fix             myat1 all ave/time 1000 10 10000 v_zave v_zdes file simulation_data/abpot/${cpt}.dat
fix             myat1 all ave/time 1000 10 10000 v_zave v_zdes file simulation_data/abpot/50.dat
run             50000
Generated 0 of 1 mixed pair_coeff terms from geometric mixing rule
Per MPI rank memory allocation (min/avg/max) = 13.32 | 13.8 | 14.98 Mbytes
   Step          Temp          E_pair         E_mol          TotEng         Press     
   2970000   309.00693      364.30973      18510.549      19316.982     -190.32544    
   2971000   303.20172      371.26344      18493.479      19298.561     -82.572493    
   2972000   297.9065       378.24085      18477.825      19282.308      158.72593    
   2973000   294.24673      368.43044      18485.872      19275.307      10.468152    
   2974000   298.89115      362.45628      18490.135      19280.242     -144.04897    
   2975000   297.29107      372.65676      18494.166      19292.184     -23.324736    
   2976000   294.03113      371.71602      18516.237      19308.649      42.35161     
   2977000   305.30682      382.49869      18503.199      19322.527      131.31466    
   2978000   303.48564      371.09988      18519.725      19325.048      54.737801    
   2979000   303.82611      363.35322      18520.477      19318.541     -158.28495    
   2980000   305.97453      369.88863      18508.652      19316.325     -80.81094     
   2981000   286.91072      387.20597      18518.276      19315.991      384.58749    
   2982000   292.96943      371.81446      18523.008      19314         -65.924699    
   2983000   290.96221      367.17897      18523.988      19307.473     -168.86122    
   2984000   303.77949      366.8262       18502.321      19303.791     -89.17016     
   2985000   294.21216      375.62733      18495.236      19291.818      7.8270957    
   2986000   295.93328      379.36704      18480.384      19283.169      48.219606    
   2987000   287.78558      367.75915      18504.985      19284.505     -92.16679     
   2988000   293.92985      362.91382      18508.898      19292.363     -220.60987    
   2989000   291.30764      367.50241      18517.712      19302.014     -95.997709    
   2990000   298.58042      379.40884      18512.838      19319.453      248.30961    
   2991000   301.81414      371.84026      18533.213      19336.886     -61.684103    
   2992000   313.15897      371.68172      18525.575      19345.322     -74.523355    
   2993000   319.00936      362.42688      18520.325      19339.187     -240.05407    
   2994000   307.95314      369.40507      18520.594      19330.615     -70.946458    
   2995000   298.15438      384.14655      18506.127      19316.869      283.1708     
   2996000   299.48727      368.46696      18508.477      19305.447     -50.584042    
   2997000   288.87136      365.03706      18515.665      19294.016     -237.27741    
   2998000   295.8917       369.94859      18497.869      19291.176      29.355356    
   2999000   288.34487      372.78223      18509.802      19295.145     -31.131594    
   3000000   294.78157      381.48612      18498.301      19301.557      142.32391    
   3001000   305.58713      364.52313      18503.558      19305.312     -219.92491    
   3002000   294.31558      367.69649      18521.028      19309.828     -154.75104    
   3003000   317.53121      385.44541      18481.336      19321.101      173.61448    
   3004000   300.7282       368.78667      18524.821      19323.886     -55.607525    
   3005000   307.11525      375.01145      18515.928      19330.357      42.015541    
   3006000   313.21929      366.03037      18523.493      19337.674     -201.46567    
   3007000   313.51732      376.83486      18524.727      19350.139      166.97837    
   3008000   318.96242      377.40838      18516.003      19349.779      118.14658    
   3009000   302.371        373.54972      18538.118      19344.297     -129.69351    
   3010000   300.24152      368.89218      18520.942      19319.416     -68.723552    
   3011000   288.77359      369.3779       18520.354      19302.906     -121.88271    
   3012000   309.85768      382.62268      18472.268      19298.232      134.72218    
   3013000   282.11364      371.885        18518.243      19293.773     -2.8288872    
   3014000   299.2782       367.18291      18500.473      19295.86      -129.27374    
   3015000   302.54285      368.83823      18505.256      19306.969     -74.167325    
   3016000   299.78668      375.9916       18517.319      19322.242      134.41243    
   3017000   324.78112      378.28469      18501.587      19344.565      229.96576    
   3018000   302.45827      359.96802      18564.226      19356.948     -331.83085    
   3019000   325.29343      367.47974      18522.037      19354.943     -170.91118    
   3020000   302.11169      376.77052      18540.867      19349.895     -43.094897    
Loop time of 16.4265 on 48 procs for 50000 steps with 481 atoms

Performance: 13.150 ns/day, 1.825 hours/ns, 3043.871 timesteps/s, 1.464 Matom-step/s
100.0% CPU use with 48 MPI tasks x 1 OpenMP threads

MPI task timing breakdown:
Section |  min time  |  avg time  |  max time  |%varavg| %total
---------------------------------------------------------------
Pair    | 0.016795   | 0.71169    | 4.7627     | 135.1 |  4.33
Bond    | 0.0049168  | 0.89602    | 4.267      | 146.1 |  5.45
Neigh   | 0.028702   | 0.031343   | 0.033729   |   0.8 |  0.19
Comm    | 6.3738     | 11.962     | 14.9       |  89.7 | 72.82
Output  | 0.0084278  | 0.013731   | 0.018808   |   2.8 |  0.08
Modify  | 0.6385     | 2.2295     | 8.8671     | 189.7 | 13.57
Other   |            | 0.5823     |            |       |  3.55

Nlocal:        10.0208 ave          51 max           0 min
Histogram: 27 6 7 0 0 0 4 1 1 2
Nghost:        1818.35 ave        2347 max        1173 min
Histogram: 8 0 0 0 24 0 0 0 0 16
Neighs:              0 ave           0 max           0 min
Histogram: 48 0 0 0 0 0 0 0 0 0

Total # of neighbors = 0
Ave neighs/atom = 0
Ave special neighs/atom = 15.567568
Neighbor list builds = 83
Dangerous builds = 0
unfix           myat1
next            cpt
jump            SELF loop
variable        zdes equal  -15+0.30*(${cpt}-1)
variable        zdes equal  -15+0.30*(51-1)
variable        zave equal xcm(H2,z)
fix             mytth2 H2 spring tether ${k1} 2.5 2.5 ${zdes} 0
fix             mytth2 H2 spring tether 0.5 2.5 2.5 ${zdes} 0
fix             mytth2 H2 spring tether 0.5 2.5 2.5 0 0
run             10000
Generated 0 of 1 mixed pair_coeff terms from geometric mixing rule
Per MPI rank memory allocation (min/avg/max) = 13.32 | 13.8 | 14.98 Mbytes
   Step          Temp          E_pair         E_mol          TotEng         Press     
   3020000   302.11169      376.77052      18540.867      19349.895     -43.094897    
   3021000   304.42957      381.39207      18519.665      19336.632      151.44503    
   3022000   291.98743      371.3677       18533.4        19322.54      -12.96697     
   3023000   298.81233      362.38379      18527.114      19317.036     -281.29304    
   3024000   298.35552      372.11876      18508.519      19307.522      43.904341    
   3025000   289.8193       381.39252      18502.725      19298.788      200.21625    
   3026000   297.80435      376.53747      18493.12       19295.753      199.99777    
   3027000   301.35123      369.05569      18497.746      19297.971     -85.517504    
   3028000   302.66553      363.40783      18512.748      19309.206     -333.59329    
   3029000   304.47815      375.34086      18527.976      19338.961      96.738186    
   3030000   310.7156       384.20737      18527.502      19356.278      269.20753    
Loop time of 3.20365 on 48 procs for 10000 steps with 481 atoms

Performance: 13.485 ns/day, 1.780 hours/ns, 3121.443 timesteps/s, 1.501 Matom-step/s
100.0% CPU use with 48 MPI tasks x 1 OpenMP threads

MPI task timing breakdown:
Section |  min time  |  avg time  |  max time  |%varavg| %total
---------------------------------------------------------------
Pair    | 0.0033173  | 0.14241    | 0.97826    |  60.7 |  4.45
Bond    | 0.00098935 | 0.17908    | 0.89174    |  65.5 |  5.59
Neigh   | 0.0047516  | 0.0052447  | 0.0056934  |   0.3 |  0.16
Comm    | 1.1431     | 2.3219     | 2.886      |  39.1 | 72.48
Output  | 0.001725   | 0.0027007  | 0.0038104  |   1.2 |  0.08
Modify  | 0.12378    | 0.43557    | 1.6905     |  80.6 | 13.60
Other   |            | 0.1167     |            |       |  3.64

Nlocal:        10.0208 ave          46 max           0 min
Histogram: 23 12 3 2 0 0 1 2 2 3
Nghost:        1818.35 ave        2347 max        1178 min
Histogram: 8 0 0 0 24 0 0 0 0 16
Neighs:              0 ave           0 max           0 min
Histogram: 48 0 0 0 0 0 0 0 0 0

Total # of neighbors = 0
Ave neighs/atom = 0
Ave special neighs/atom = 15.567568
Neighbor list builds = 15
Dangerous builds = 0
fix             myat1 all ave/time 1000 10 10000 v_zave v_zdes file simulation_data/abpot/${cpt}.dat
fix             myat1 all ave/time 1000 10 10000 v_zave v_zdes file simulation_data/abpot/51.dat
run             50000
Generated 0 of 1 mixed pair_coeff terms from geometric mixing rule
Per MPI rank memory allocation (min/avg/max) = 13.32 | 13.8 | 14.98 Mbytes
   Step          Temp          E_pair         E_mol          TotEng         Press     
   3030000   310.7156       384.20737      18527.502      19356.278      269.20753    
   3031000   315.53317      369.2796       18536.345      19357.086     -20.216105    
   3032000   308.63785      364.08684      18541.4        19347.083     -163.07987    
   3033000   306.17053      373.41592      18518.97       19330.451     -50.662052    
   3034000   303.31664      376.15701      18505.626      19315.765      80.762028    
   3035000   301.83642      375.80535      18500.356      19308.025      52.381547    
   3036000   297.75631      370.62442      18508.566      19305.217     -90.492196    
   3037000   299.77867      363.73037      18516.633      19309.284     -199.17339    
   3038000   296.47592      376.40106      18511.47       19312.066      86.835227    
   3039000   292.29317      374.2503       18522.313      19314.773      37.201867    
   3040000   292.44561      372.26577      18532.772      19323.466      55.611185    
   3041000   328.47123      366.05982      18511.282      19347.314     -188.03151    
   3042000   318.07859      366.73705      18549.133      19370.973      14.208769    
   3043000   317.21391      381.53323      18544.306      19379.706      123.15342    
   3044000   318.19547      375.3685       18546.196      19376.835     -84.606399    
   3045000   296.94285      370.75447      18563.722      19359.339     -112.70296    
   3046000   297.09666      374.38331      18545.872      19345.338     -109.2504     
   3047000   292.22531      370.14582      18541.107      19329.365     -121.24427    
   3048000   298.83021      378.06232      18517.412      19323.037      211.95324    
   3049000   311.77443      369.85928      18504.691      19320.634     -62.301841    
   3050000   304.62816      368.93097      18506.773      19311.562     -130.42923    
   3051000   288.16697      366.80732      18519.292      19298.405      6.1619085    
   3052000   311.64716      375.08631      18474.451      19295.439      67.939843    
   3053000   279.28947      374.79966      18524.062      19298.466      41.991565    
   3054000   297.97708      362.6548       18522.518      19311.515     -351.44086    
   3055000   318.50647      365.80283      18512.433      19333.951     -97.513379    
   3056000   303.362        378.70468      18537.043      19349.794      83.21026     
   3057000   320.31406      371.38425      18519.434      19349.12      -22.056188    
   3058000   317.48315      367.84947      18519.533      19341.634     -35.528386    
   3059000   304.14914      362.7145       18525.003      19322.89      -259.28118    
   3060000   290.5671       372.25065      18523.435      19311.426     -56.668534    
   3061000   289.53605      372.3331       18515.173      19301.771      56.643922    
   3062000   285.14201      363.1864       18530.597      19301.761     -255.01153    
   3063000   298.67083      369.58032      18504.384      19301.299     -157.82853    
   3064000   282.34346      371.95508      18524.91       19300.839     -7.1197667    
   3065000   291.64387      372.33799      18516.222      19305.84      -76.788515    
   3066000   306.15491      368.37359      18513.648      19320.064     -73.274799    
   3067000   301.46059      365.91656      18541.411      19338.654     -152.93852    
   3068000   333.71197      367.31676      18520.633      19365.421     -32.095493    
   3069000   322.35415      373.00625      18540.821      19375.048     -75.416596    
   3070000   327.235        379.84069      18520.827      19368.872      139.55532    
   3071000   315.61604      370.08316      18533.936      19355.599     -116.4062     
   3072000   297.68372      366.95442      18548.635      19341.512     -279.78302    
   3073000   308.9338       369.75674      18514.684      19326.46      -6.0465767    
   3074000   296.37052      375.36844      18517.158      19316.57       69.096962    
   3075000   297.13874      378.57043      18507.959      19311.673      174.48733    
   3076000   276.91763      368.20283      18539.426      19303.84      -191.83101    
   3077000   297.3966       359.13787      18509.895      19294.544     -300.75023    
   3078000   284.25571      377.14739      18506.388      19290.246      204.9048     
   3079000   301.63357      379.01685      18481.49       19292.081      105.93187    
   3080000   297.76031      366.58638      18512.212      19304.831     -119.3857     
Loop time of 16.1441 on 48 procs for 50000 steps with 481 atoms

Performance: 13.380 ns/day, 1.794 hours/ns, 3097.109 timesteps/s, 1.490 Matom-step/s
100.0% CPU use with 48 MPI tasks x 1 OpenMP threads

MPI task timing breakdown:
Section |  min time  |  avg time  |  max time  |%varavg| %total
---------------------------------------------------------------
Pair    | 0.016694   | 0.71087    | 4.6833     | 135.3 |  4.40
Bond    | 0.0048678  | 0.89428    | 4.1155     | 146.2 |  5.54
Neigh   | 0.028479   | 0.031376   | 0.033962   |   0.8 |  0.19
Comm    | 6.1039     | 11.751     | 14.559     |  88.5 | 72.79
Output  | 0.0085528  | 0.013566   | 0.018896   |   2.7 |  0.08
Modify  | 0.65737    | 2.1596     | 8.5567     | 184.1 | 13.38
Other   |            | 0.5834     |            |       |  3.61

Nlocal:        10.0208 ave          50 max           0 min
Histogram: 25 7 8 0 0 1 2 1 1 3
Nghost:        1818.35 ave        2347 max        1173 min
Histogram: 8 0 0 0 24 0 0 0 0 16
Neighs:              0 ave           0 max           0 min
Histogram: 48 0 0 0 0 0 0 0 0 0

Total # of neighbors = 0
Ave neighs/atom = 0
Ave special neighs/atom = 15.567568
Neighbor list builds = 89
Dangerous builds = 0
unfix           myat1
next            cpt
jump            SELF loop

Total wall time: 0:16:43
