# --- log file ---

# 1. Initialization
units real
boundary p p p
atom_style molecular
neighbor 1 bin
neigh_modify delay 3 one 6000
pair_style hybrid lj/cut 14 sg 15 cb 30 # Fluid-fluid interactions have a cutoff of 15 Å, fluid-solid interactions have a cutoff of 30 Å
#kspace_style pppm 1.0e-4
# No space style is needed for the absence of charges
# *--* C-C parameters *--*
bond_style harmonic
angle_style harmonic
dihedral_style opls
improper_style harmonic
# *--* C-C parameters *--*


# 2. Read the graphite platelet data file
# 3. Define potentials parameters
read_data ../geometry/carbonPlatelets/simulation_data/final.data  extra/atom/types 1
Reading data file ...
  orthogonal box = (-30 -30 -15) to (30 30 15)
  2 by 2 by 1 MPI processor grid
  reading atoms ...
  480 atoms
  reading velocities ...
  480 velocities
  scanning bonds ...
  2 = max bonds/atom
  scanning angles ...
  3 = max angles/atom
  scanning dihedrals ...
  8 = max dihedrals/atom
  scanning impropers ...
  2 = max impropers/atom
  orthogonal box = (-30 -30 -15) to (30 30 15)
  2 by 2 by 1 MPI processor grid
  reading bonds ...
  676 bonds
  reading angles ...
  1268 angles
  reading dihedrals ...
  2394 dihedrals
  reading impropers ...
  396 impropers
Finding 1-2 1-3 1-4 neighbors ...
  special bond factors lj:    0        0        0       
  special bond factors coul:  0        0        0       
     3 = max # of 1-2 neighbors
     6 = max # of 1-3 neighbors
    18 = max # of 1-4 neighbors
    18 = max # of special neighbors
  special bonds CPU = 0.001 seconds
  read_data CPU = 0.019 seconds
include PARM.lammps

#////////////////////////////////////////////////////////////////////////////////////////////////////////////////////////////////
#//     Filename: PARM.lammps
#//     File Type: LAMMPS input script
#//     Description: This script defines the parameters for the simulation of hydrogen absorption in graphite platelets.
#//     Author: Edoardo Cabiati
#//     Date: 2024-07-27
#////////////////////////////////////////////////////////////////////////////////////////////////////////////////////////////////

mass 2 2.016 # For now at least, in accordance with the paper by Wang and Johnson,
             # 1998, the hydrogen atoms are regarded as simple spherical atoms

# //////////////////////////////////////    C-C potentials    //////////////////////////////////////
pair_coeff 1 1 lj/cut 0.066 3.4
bond_coeff 1 469 1.4
angle_coeff 1 63 120
dihedral_coeff 1 0 7.25 0 0
improper_coeff 1 5 180
special_bonds lj 0.0 0.0 0.5
Finding 1-2 1-3 1-4 neighbors ...
  special bond factors lj:    0        0        0.5     
  special bond factors coul:  0        0        0       
     3 = max # of 1-2 neighbors
     6 = max # of 1-3 neighbors
    18 = max # of 1-4 neighbors
    18 = max # of special neighbors
  special bonds CPU = 0.000 seconds
# //////////////////////////////////////    C-C potentials    //////////////////////////////////////
# -------------------------------------------------------------------------------------------------
# //////////////////////////////////////    H-H potentials    //////////////////////////////////////
variable alpha equal 1.713          #|
variable sigma equal 1.567          #|
variable gamma equal 0.00993        #|
variable c6 equal 12.14             #|      The parameters are all in atomic units, the conversion to kcal/mol
variable c8 equal 215.2             #|      is performed in the pair_sg.cpp file
variable c9 equal 143.1             #|
variable c10 equal 4813.9           #|
variable rc equal 8.321             #|
pair_coeff 2 2 sg ${alpha} ${sigma} ${gamma} ${c6} ${c8} ${c9} ${c10} ${rc} # H-H potentials
pair_coeff 2 2 sg 1.713 ${sigma} ${gamma} ${c6} ${c8} ${c9} ${c10} ${rc} 
pair_coeff 2 2 sg 1.713 1.567 ${gamma} ${c6} ${c8} ${c9} ${c10} ${rc} 
pair_coeff 2 2 sg 1.713 1.567 0.00993 ${c6} ${c8} ${c9} ${c10} ${rc} 
pair_coeff 2 2 sg 1.713 1.567 0.00993 12.14 ${c8} ${c9} ${c10} ${rc} 
pair_coeff 2 2 sg 1.713 1.567 0.00993 12.14 215.2 ${c9} ${c10} ${rc} 
pair_coeff 2 2 sg 1.713 1.567 0.00993 12.14 215.2 143.1 ${c10} ${rc} 
pair_coeff 2 2 sg 1.713 1.567 0.00993 12.14 215.2 143.1 4813.9 ${rc} 
pair_coeff 2 2 sg 1.713 1.567 0.00993 12.14 215.2 143.1 4813.9 8.321 
#pair_coeff 2 2 sg 1.713 1.567 0.00993 12.14 215.2 143.1 4813.9 8.321 # H-H potentials
# //////////////////////////////////////    H-H potentials    //////////////////////////////////////
# -------------------------------------------------------------------------------------------------
# //////////////////////////////////////    C-H potentials    //////////////////////////////////////
variable sigma_CC equal 3.43 # Å
variable sigma_HH equal 3.075 # Å
variable sigma_CH_geo equal sqrt(${sigma_CC}*${sigma_HH}) # Å
variable sigma_CH_geo equal sqrt(3.43*${sigma_HH}) 
variable sigma_CH_geo equal sqrt(3.43*3.075) 
variable sigma_CH_arit equal 0.5*(${sigma_CC}+${sigma_HH}) # Å
variable sigma_CH_arit equal 0.5*(3.43+${sigma_HH}) 
variable sigma_CH_arit equal 0.5*(3.43+3.075) 

variable P_par equal 0.57 # Å^3
variable P_perp equal 1.995 # Å^3
variable P_h equal 0.81 # Å^3
variable E_h equal 2.337e5*(1/503.23) # K * 1/503.23 kcal/mol/K = kcal/mol
variable E_c equal 1.39254e5*(1/503.23) # K * 1/503.23 kcal/mol/K = kcal/mol

variable epsilon equal 4*v_E_h*v_E_c*v_P_h*(v_P_par+v_P_perp/2)/(v_sigma_CH_geo^6*(v_E_h+v_E_c)) # kcal/mol

pair_coeff 1 2 cb ${epsilon} ${sigma_CH_geo} ${P_par} ${P_perp} # C-H potential
pair_coeff 1 2 cb 0.750549668586509 ${sigma_CH_geo} ${P_par} ${P_perp} 
pair_coeff 1 2 cb 0.750549668586509 3.24765299870537 ${P_par} ${P_perp} 
pair_coeff 1 2 cb 0.750549668586509 3.24765299870537 0.57 ${P_perp} 
pair_coeff 1 2 cb 0.750549668586509 3.24765299870537 0.57 1.995 
#pair_coeff 1 2 lj/cut 0.3025 2.065
# //////////////////////////////////////    C-H potentials    //////////////////////////////////////

# 4. Generate the initial hydrogen atoms
lattice sc 3
Lattice spacing in x,y,z = 3 3 3
create_atoms 2 box ratio 0.01 428795
Created 40 atoms
  using lattice units in orthogonal box = (-30 -30 -15) to (30 30 15)
  create_atoms CPU = 0.000 seconds
lattice none 1
# Print the number of hydrogen atoms to file and delete the overlapping hydrogen atoms generated

variable hydrogen atom "type==2"
group hydrogen dynamic all var hydrogen
dynamic group hydrogen defined
variable nH equal count(hydrogen)
fix myat1 all ave/time 100 10 1000 v_nH file simulation_data/hydrogenCount.data

group           C type 1
480 atoms in group C
group           H2 type 2
40 atoms in group H2
delete_atoms    overlap 4 H2 C
System init for delete_atoms ...
Generated 0 of 1 mixed pair_coeff terms from geometric mixing rule
Neighbor list info ...
  update: every = 1 steps, delay = 3 steps, check = yes
  max neighbors/atom: 6000, page size: 100000
  master list distance cutoff = 31
  ghost atom cutoff = 31
  binsize = 15.5, bins = 4 4 2
  5 neighbor lists, perpetual/occasional/extra = 4 1 0
  (1) command delete_atoms, occasional
      attributes: full, newton on
      pair build: full/bin
      stencil: full/bin/3d
      bin: standard
  (2) pair lj/cut, perpetual, skip trim from (5)
      attributes: half, newton on, cut 15
      pair build: skip/trim
      stencil: none
      bin: none
  (3) pair sg, perpetual, skip trim from (5)
      attributes: half, newton on, cut 16
      pair build: skip/trim
      stencil: none
      bin: none
  (4) pair cb, perpetual, skip from (5)
      attributes: half, newton on
      pair build: skip
      stencil: none
      bin: none
  (5) neighbor class addition, perpetual
      attributes: half, newton on
      pair build: half/bin/newton
      stencil: half/bin/3d
      bin: standard
WARNING: Ignoring 'compress yes' for molecular system (src/delete_atoms.cpp:141)
Deleted 9 atoms, new total = 511
reset_atoms     id sort yes
Resetting atom IDs ...
Generated 0 of 1 mixed pair_coeff terms from geometric mixing rule
Neighbor list info ...
  update: every = 1 steps, delay = 3 steps, check = yes
  max neighbors/atom: 6000, page size: 100000
  master list distance cutoff = 31
  ghost atom cutoff = 31
  binsize = 15.5, bins = 4 4 2
  4 neighbor lists, perpetual/occasional/extra = 4 0 0
  (1) pair lj/cut, perpetual, skip trim from (4)
      attributes: half, newton on, cut 15
      pair build: skip/trim
      stencil: none
      bin: none
  (2) pair sg, perpetual, skip trim from (4)
      attributes: half, newton on, cut 16
      pair build: skip/trim
      stencil: none
      bin: none
  (3) pair cb, perpetual, skip from (4)
      attributes: half, newton on
      pair build: skip
      stencil: none
      bin: none
  (4) neighbor class addition, perpetual
      attributes: half, newton on
      pair build: half/bin/newton
      stencil: half/bin/3d
      bin: standard
Finding 1-2 1-3 1-4 neighbors ...
  special bond factors lj:    0        0        0.5     
  special bond factors coul:  0        0        0       
     3 = max # of 1-2 neighbors
     6 = max # of 1-3 neighbors
    18 = max # of 1-4 neighbors
    18 = max # of special neighbors
  special bonds CPU = 0.000 seconds

# Constrain carbon atoms
fix             myspr C spring/self 5

# 5. Equilibration step
thermo 500
variable        T equal 298
velocity        all create ${T} 1234567 dist gaussian
velocity        all create 298 1234567 dist gaussian
# fix             nve1 mob_atoms nve
# compute         tcar mob_carbons temp
# fix             myber1 mob_atoms temp/berendsen ${T} ${T} 200
# fix_modify      myber1 temp tcar
# compute         tgas H2 temp
# fix             myber2 mob_atoms temp/berendsen ${T} ${T} 200
# fix_modify      myber2 temp tgas
#----------------------------------------------------------------
compute_modify thermo_temp dynamic yes
compute ctH2 H2 temp
compute_modify ctH2 dynamic yes
fix mynvt1 H2 nvt temp ${T} ${T} 0.1
fix mynvt1 H2 nvt temp 298 ${T} 0.1
fix mynvt1 H2 nvt temp 298 298 0.1
fix_modify mynvt1 temp ctH2
WARNING: Temperature for fix modify is not for group all (src/fix_nh.cpp:1399)
compute ctC C temp
fix mynvt2 C nvt temp ${T} ${T} 0.1
fix mynvt2 C nvt temp 298 ${T} 0.1
fix mynvt2 C nvt temp 298 298 0.1
fix_modify mynvt2 temp ctC
WARNING: Temperature for fix modify is not for group all (src/fix_nh.cpp:1399)
timestep 0.05
#thermo_style custom step temp pe ke etotal press vol
#----------------------------------------------------------------
# fix             npt1 mob_atoms npt temp ${T} ${T} 200 iso 113 113 2000


# Fix the motion of the outer carbons

dump            test_dump all atom 100 simulation_data/test.lammpstrj

run 500000

CITE-CITE-CITE-CITE-CITE-CITE-CITE-CITE-CITE-CITE-CITE-CITE-CITE

Your simulation uses code contributions which should be cited:

- Type Label Framework: https://doi.org/10.1021/acs.jpcb.3c08419

@Article{Gissinger24,
 author = {Jacob R. Gissinger, Ilia Nikiforov, Yaser Afshar, Brendon Waters, Moon-ki Choi, Daniel S. Karls, Alexander Stukowski, Wonpil Im, Hendrik Heinz, Axel Kohlmeyer, and Ellad B. Tadmor},
 title = {Type Label Framework for Bonded Force Fields in LAMMPS},
 journal = {J. Phys. Chem. B},
 year =    2024,
 volume =  128,
 number =  13,
 pages =   {3282–-3297}
}

CITE-CITE-CITE-CITE-CITE-CITE-CITE-CITE-CITE-CITE-CITE-CITE-CITE

Generated 0 of 1 mixed pair_coeff terms from geometric mixing rule
Per MPI rank memory allocation (min/avg/max) = 13.49 | 13.49 | 13.5 Mbytes
   Step          Temp          E_pair         E_mol          TotEng         Press     
         0   298            331.41389      19603.922      20388.359     -816.04555    
       500   293.74811      312.25809      18875.927      19634.745     -4223.705     
      1000   306.09743      363.66415      18588.594      19417.591     -137.10796    
      1500   300.67294      399.16311      18552.491      19408.741      883.31234    
      2000   300.90964      422.50351      18567.289      19447.239      1051.1509    
      2500   299.83193      426.62364      18614.072      19496.505      1280.3783    
      3000   291.99725      400.09977      18534.208      19378.205      709.58117    
      3500   293.63391      345.30613      18611.289      19402.981     -1212.1882    
      4000   321.67121      330.56184      18683.635      19503.206     -2039.5699    
      4500   297.80462      311.03527      18725.993      19489.755     -2457.4966    
      5000   315.91388      331.9207       18680.914      19493.091     -1564.3465    
      5500   293.95223      354.87286      18576.393      19378.136     -874.56683    
      6000   291.83073      402.99811      18525.523      19372.166      770.21004    
      6500   306.35836      423.61652      18569.171      19458.518      1417.3682    
      7000   285.25757      414.85606      18575.199      19423.708      834.90296    
      7500   294.68837      380.10156      18572.898      19400.988     -169.05897    
      8000   304.935        341.80744      18583.673      19389.047     -1086.1284    
      8500   286.78648      324.43197      18682.648      19443.056     -1999.2753    
      9000   293.75567      316.19914      18654.846      19417.617     -2295.245     
      9500   288.35932      340.09562      18609.218      19387.681     -1128.4005    
     10000   275.26636      364.13027      18540.707      19323.301     -331.1586     
     10500   298.82356      403.21165      18532.435      19389.922      646.63273    
     11000   281.36308      406.90434      18574.982      19409.618      934.12777    
     11500   310.31441      395.94129      18570.707      19438.392      505.21436    
     12000   301.22417      364.26363      18522.366      19344.555     -328.39891    
     12500   286.1301       342.19823      18593.713      19370.89      -1274.3501    
     13000   301.90393      329.92883      18636.16       19425.047     -1891.7932    
     13500   298.24144      334.39069      18667.429      19455.21      -1787.286     
     14000   315.96081      346.86741      18591.987      19419.182     -1070.0741    
     14500   292.7998       376.56773      18529.901      19351.586      57.5704      
     15000   297.79852      402.28109      18571.224      19426.222      812.50907    
     15500   301.6044       404.72077      18546.048      19409.272      659.03814    
     16000   283.81091      388.92769      18534.06       19354.441      360.77067    
     16500   296.77515      356.91988      18550.351      19358.432     -755.48076    
     17000   297.98826      339.25452      18660.979      19453.239     -1382.5389    
     17500   293.01106      323.89158      18651.494      19420.825     -2029.7695    
     18000   319.14914      338.04256      18611.568      19434.785     -1552.2296    
     18500   293.79146      357.13355      18553.826      19357.585     -573.42907    
     19000   296.48899      395.42578      18541.608      19387.76       619.60651    
     19500   298.61406      401.6335       18583.482      19439.073      559.071      
     20000   293.71176      396.87183      18581.641      19425.018      589.75062    
     20500   303.85338      376.26697      18528.995      19367.183     -134.82235    
     21000   294.49217      346.3092       18588.256      19382.256     -1040.8292    
     21500   297.99824      322.47383      18622.954      19398.449     -1728.3884    
     22000   286.42939      326.9453       18667.358      19429.737     -1773.6262    
     22500   303.54062      344.04082      18581.299      19386.786     -1118.2437    
     23000   284.15836      371.48024      18548.117      19351.579     -203.71482    
     23500   276.31088      392.93444      18523.464      19336.45       441.40572    
     24000   300.07048      403.52463      18546.473      19406.169      824.92396    
     24500   288.34391      386.27816      18552.502      19377.125      315.07355    
     25000   302.59585      347.11239      18573.35       19380.473     -791.63302    
     25500   295.75391      333.70543      18602.994      19386.308     -1330.2875    
     26000   292.39666      321.97853      18645.98       19412.464     -1721.7723    
     26500   296.159        323.96806      18638.959      19413.151     -1724.3655    
     27000   285.20659      347.04527      18547.354      19327.974     -762.05271    
     27500   287.17247      381.4179       18541.152      19359.133      415.54337    
     28000   304.46969      384.84693      18552.768      19400.474      457.97424    
     28500   305.59377      381.14206      18512.894      19358.604      456.31814    
     29000   285.43856      369.02744      18583.625      19386.58      -160.73119    
     29500   300.87605      341.20792      18586.861      19385.465     -947.27265    
     30000   287.83603      323.60498      18624.944      19386.121     -1623.4       
     30500   303.61715      325.9905       18667.038      19454.591     -1376.0853    
     31000   286.07971      329.28507      18593.79       19357.977     -1288.6161    
     31500   307.55781      350.97945      18570.463      19388.996     -565.40939    
     32000   293.8139       380.47403      18562.153      19389.287      250.30705    
     32500   288.60697      384.9373       18580.031      19403.712      534.68684    
     33000   291.19801      374.51402      18512.399      19329.597      345.84923    
     33500   290.18756      357.2302       18523.432      19321.809     -190.62873    
     34000   304.05299      327.93038      18577.107      19367.263     -1112.2736    
     34500   294.75098      316.92076      18614.224      19379.229     -1752.0234    
     35000   300.8472       318.73063      18631.134      19407.216     -1465.9287    
     35500   303.86322      336.85969      18574.315      19373.111     -942.86611    
     36000   286.11307      358.51137      18565.561      19359.025     -272.77383    
     36500   303.66938      381.02564      18547.652      19390.32       448.02358    
     37000   287.01384      383.1271       18526.317      19345.767      727.73077    
     37500   309.81754      362.64817      18545.592      19379.229     -113.6707     
     38000   307.66768      349.12516      18560.268      19377.114     -545.34029    
     38500   299.1805       325.68455      18575.638      19356.141     -1190.0378    
     39000   298.16758      319.15082      18643.071      19415.5       -1549.5042    
     39500   298.65341      313.07045      18586.708      19353.796     -1559.9486    
     40000   292.72243      338.55182      18557.169      19340.721     -722.3689     
     40500   301.07601      361.94032      18530.674      19350.314      86.211819    
     41000   294.05573      373.42514      18544.456      19364.908      545.81611    
     41500   291.18242      370.68411      18529.247      19342.59       235.29677    
     42000   282.71046      357.47667      18549.212      19336.469      12.060486    
     42500   309.7444       336.17194      18575.35       19382.399     -886.05737    
     43000   294.2213       320.51028      18605.352      19373.141     -1445.4789    
     43500   289.92113      317.81453      18604.065      19362.621     -1514.4565    
     44000   293.38892      330.57248      18594.438      19371.024     -880.21845    
     44500   309.88776      339.85833      18571.461      19382.415     -634.97874    
     45000   289.02269      366.36629      18550.697      19356.439      83.881574    
     45500   277.74948      371.31833      18532.383      19325.94       508.72904    
     46000   299.76479      350.71944      18571.219      19377.644     -316.16475    
     46500   283.14182      346.59093      18565.639      19342.666     -374.45859    
     47000   296.39979      330.36605      18567.614      19348.571     -930.54802    
     47500   299.4726       318.22831      18614.819      19388.309     -1260.3867    
     48000   297.79321      318.99215      18615.874      19387.576     -1318.2152    
     48500   315.9319       339.44446      18563.254      19382.982     -652.14424    
     49000   292.29284      349.448        18560.813      19354.608     -248.38777    
     49500   283.08276      363.0201       18538.528      19331.894      140.58431    
     50000   292.71821      361.73041      18578.135      19384.859      41.627337    
     50500   309.18859      353.28789      18566.325      19389.645     -113.73201    
     51000   303.08475      329.9216       18593.445      19384.12      -843.23957    
     51500   287.30479      326.9111       18570.426      19334.101     -1125.3067    
     52000   293.16662      320.65954      18575.504      19341.839     -1268.6042    
     52500   299.94477      335.33404      18582.449      19373.763     -902.71807    
     53000   292.34508      344.6621       18536.993      19326.082     -460.9244     
     53500   294.22659      364.54324      18538.134      19349.964      38.526337    
     54000   287.12013      363.95402      18560.927      19361.364      152.63095    
     54500   299.41532      356.17325      18564.315      19375.663     -377.62556    
     55000   299.97738      343.10327      18530.534      19329.667     -563.54272    
     55500   301.07439      334.97978      18548.125      19340.802     -736.63531    
     56000   281.50153      324.85748      18541.766      19294.566     -1049.1801    
     56500   293.53184      324.69534      18592.985      19363.911     -1135.2359    
     57000   295.68859      344.29529      18563.149      19356.954     -440.73131    
     57500   294.53154      345.2559       18582.802      19375.809     -428.08537    
     58000   294.0324       360.75562      18551.279      19359.026      1.3728389    
     58500   313.39902      361.2937       18529.357      19367.084      14.528966    
     59000   318.21877      347.50076      18580.712      19411.974     -319.56072    
     59500   295.86596      338.59587      18561.136      19349.512     -737.78261    
     60000   294.81771      327.15996      18560.194      19335.539     -989.75124    
     60500   287.44791      318.24066      18605.029      19360.252     -1198.8708    
     61000   293.8282       328.37542      18565.746      19340.803     -700.37188    
     61500   289.15611      342.92847      18544.545      19327.053     -364.16626    
     62000   306.07236      346.87446      18568.081      19380.25      -207.27837    
     62500   309.55718      350.98182      18538.314      19359.889      180.52935    
     63000   319.30869      349.25485      18548.833      19383.505     -68.940285    
     63500   290.49818      332.84773      18565.883      19340.35      -889.88535    
     64000   299.08187      330.23795      18592.876      19377.782     -777.19291    
     64500   302.32761      331.72054      18583.126      19374.448     -726.33028    
     65000   307.36662      319.98348      18565.197      19352.444     -1177.6834    
     65500   285.5999       334.06627      18558.278      19326.517     -642.07312    
     66000   295.96349      352.39724      18550.858      19353.183     -64.134061    
     66500   308.79337      353.6261       18548.072      19371.129     -124.24526    
     67000   291.88637      345.15409      18565.498      19354.382     -403.35875    
     67500   306.0459       351.67948      18586.247      19403.182     -79.396865    
     68000   283.13429      336.75828      18559.134      19326.316     -660.33194    
     68500   284.83922      325.46385      18592.609      19351.089     -1210.6108    
     69000   319.2807       326.43031      18591.817      19403.622     -862.48236    
     69500   289.26381      331.70111      18574.579      19346.023     -710.56099    
     70000   291.4825       339.29811      18562.78       19345.194     -488.25158    
     70500   326.81017      345.61242      18543.942      19386.376     -261.05579    
     71000   285.01774      352.60186      18564.467      19350.357      51.843611    
     71500   288.63755      343.88223      18548.932      19331.605     -187.17513    
     72000   306.27782      333.82174      18561.609      19361.039     -670.46517    
     72500   293.63781      324.15801      18573.397      19343.947     -800.45318    
     73000   268.29335      317.85247      18572.508      19298.223     -834.19137    
     73500   299.66502      319.13665      18595.816      19370.507     -956.3236     
     74000   295.64294      326.66578      18543.396      19319.502     -736.24927    
     74500   293.7768       333.7235       18571.159      19351.485     -403.81033    
     75000   282.96715      342.28017      18508.98       19281.431     -48.35727     
     75500   290.41316      343.19095      18568.844      19353.525     -1.0494353    
     76000   292.36942      326.66503      18551.252      19322.381     -407.86384    
     76500   292.78667      318.83552      18582.652      19346.586     -887.50812    
     77000   290.32599      320.73559      18575.22       19337.313     -670.91941    
     77500   296.9114       303.91821      18572.474      19327.761     -1137.3493    
     78000   292.53919      313.30989      18577.961      19335.993     -855.55051    
     78500   277.69303      328.24622      18576.74       19327.138     -462.30614    
     79000   285.47884      339.12395      18551.717      19324.83      -38.492433    
     79500   294.93166      335.02673      18587.096      19370.482     -204.58057    
     80000   290.26811      334.65251      18527.252      19303.174     -147.61631    
     80500   309.61788      326.61448      18560.796      19358.096     -700.39209    
     81000   313.15259      313.24332      18572.15       19361.452     -779.66598    
     81500   289.71737      312.80737      18581.156      19334.396     -1042.7391    
     82000   289.35092      320.30246      18555.671      19315.849     -775.01611    
     82500   302.17179      327.00882      18546.461      19332.835     -778.48007    
     83000   288.63654      333.60104      18562.542      19334.932     -285.4875     
     83500   292.92781      343.73477      18575.62       19364.668      30.887896    
     84000   305.71448      334.40474      18566.988      19366.144     -257.04268    
     84500   299.41279      334.64432      18572.57       19362.386     -189.84418    
     85000   289.68572      318.86768      18564.999      19324.251     -728.25787    
     85500   293.08343      318.97285      18573.716      19338.238     -882.75377    
     86000   287.02603      317.24         18578.425      19332.005     -1057.7388    
     86500   290.88152      331.62713      18559.254      19333.083     -620.77472    
     87000   292.62776      330.8482       18535.206      19310.911     -541.09132    
     87500   296.60999      347.44376      18563.277      19361.631     -134.5963     
     88000   287.08612      347.18501      18541.098      19324.716     -289.47032    
     88500   282.62416      337.03297      18542.247      19308.929     -297.64069    
     89000   280.29101      331.30775      18566.132      19323.542     -426.36615    
     89500   306.38339      322.88893      18554.042      19342.699     -784.51392    
     90000   303.01785      317.82139      18586.796      19365.269     -1126.3121    
     90500   285.62633      326.94252      18547.581      19308.737     -675.30418    
     91000   299.79775      331.98936      18569.553      19357.299     -692.80852    
     91500   299.59892      340.24095      18556.023      19351.719     -420.90635    
     92000   311.71116      351.10825      18533.462      19358.438      14.376004    
     92500   294.61271      349.57078      18536.871      19334.316     -124.04566    
     93000   280.61463      340.00713      18560.47       19327.071     -504.1948     
     93500   311.52771      331.37426      18609.459      19414.421     -700.46379    
     94000   282.54913      328.95004      18555.995      19314.48      -844.73274    
     94500   293.47951      324.42332      18564.545      19335.12      -848.33768    
     95000   285.57184      322.83089      18554.644      19311.605     -944.71752    
     95500   282.80015      333.85085      18538.154      19301.921     -489.16503    
     96000   315.30505      354.20857      18548.422      19381.962      15.84691     
     96500   291.5639       350.57816      18552.932      19346.749     -105.40686    
     97000   276.00317      341.35471      18550.914      19311.852     -399.38106    
     97500   293.99985      331.45579      18547.151      19325.549     -460.62587    
     98000   294.18228      323.26313      18560.421      19330.904     -765.24299    
     98500   305.34312      316.28361      18574.887      19355.357     -1060.0444    
     99000   311.47186      323.67005      18569.896      19367.07      -868.44768    
     99500   297.03559      335.63142      18570.819      19358.008     -578.56832    
    100000   278.23008      346.14493      18571.573      19340.687     -280.96607    
    100500   287.09051      350.39853      18571.866      19358.703      44.987607    
    101000   298.59285      350.18384      18548.517      19352.625     -115.82897    
    101500   283.8422       339.21924      18579.048      19349.768     -444.39054    
    102000   286.56053      322.90714      18581.805      19340.345     -907.29908    
    102500   287.54785      315.80506      18552.563      19305.502     -814.30397    
    103000   283.60924      316.12155      18601.882      19349.15      -1101.4183    
    103500   306.87642      319.3832       18589.991      19375.892     -692.87728    
    104000   281.7052       334.15586      18554.231      19316.638     -312.49522    
    104500   306.30401      344.94225      18532.189      19342.779      82.684619    
    105000   311.35184      339.40651      18543.279      19356.007     -184.92039    
    105500   303.88363      335.03912      18564.523      19361.53      -387.14446    
    106000   293.83985      320.91874      18601.891      19369.509     -672.38644    
    106500   288.65541      313.93229      18583.667      19336.417     -1010.6458    
    107000   296.56813      315.44362      18584.186      19350.476     -873.21633    
    107500   302.19452      324.45353      18573.078      19356.932     -819.00738    
    108000   293.344        330.27381      18572.02       19348.24      -567.00631    
    108500   301.8182       338.90007      18559.214      19356.942     -245.29716    
    109000   302.66913      342.94817      18533.736      19336.805      53.493643    
    109500   284.35264      342.14068      18539.098      19313.515     -311.97705    
    110000   283.79243      337.41875      18565.529      19334.373     -341.63979    
    110500   301.68095      332.43342      18547.684      19338.737     -653.89552    
    111000   318.41506      321.27336      18580.071      19385.403     -968.59389    
    111500   300.40912      322.71183      18577.965      19357.363     -962.97096    
    112000   296.19171      331.74175      18556.8        19338.816     -640.29535    
    112500   298.97644      341.73678      18620.562      19416.806     -433.80485    
    113000   320.01721      346.95584      18563.927      19397.377     -177.95631    
    113500   276.54572      354.90685      18557.313      19332.629     -171.85494    
    114000   296.69853      344.12128      18543.376      19338.542     -251.18478    
    114500   299.86535      339.45262      18583.782      19379.093     -764.80359    
    115000   287.76659      330.07655      18573.782      19341.325     -732.97831    
    115500   308.10293      325.79029      18584.704      19378.877     -953.61543    
    116000   287.00734      331.95557      18562.861      19331.129     -813.48896    
    116500   292.76842      335.3036       18557.823      19338.197     -563.8573     
    117000   303.68621      342.98225      18582.507      19387.157     -113.72878    
    117500   300.61946      340.92561      18573.748      19371.679     -347.05622    
    118000   279.41939      335.26336      18568.885      19328.925     -389.08488    
    118500   318.51142      330.68865      18541.904      19356.798     -272.49946    
    119000   302.42161      322.93489      18557.583      19340.264     -592.85846    
    119500   301.56754      313.4011       18605.412      19377.26      -1120.3867    
    120000   308.2089       322.97456      18558.475      19349.993     -711.8202     
    120500   290.36918      329.54483      18545.299      19316.267     -509.8408     
    121000   298.77506      332.11969      18569.997      19356.318     -650.34735    
    121500   301.29712      341.88802      18537.248      19337.172     -278.78875    
    122000   313.57116      354.6112       18559.255      19390.561      10.286929    
    122500   295.04316      342.18881      18544.141      19334.858     -328.08686    
    123000   304.87836      329.77468      18552.158      19345.413     -947.36355    
    123500   310.47121      325.76576      18571.091      19368.839     -854.06681    
    124000   297.95367      327.23292      18584.857      19365.043     -625.27216    
    124500   299.97999      321.67556      18577.084      19354.793     -992.71877    
    125000   291.36451      333.56946      18538.262      19314.767     -579.93389    
    125500   297.99004      349.41575      18558.945      19361.37       89.063458    
    126000   293.51027      343.88477      18558.681      19348.764     -352.3044     
    126500   311.53737      332.01147      18552.841      19358.455     -589.65593    
    127000   287.2586       336.87727      18573.633      19347.205     -323.12302    
    127500   284.047        330.15666      18580.142      19342.111     -708.82775    
    128000   315.64848      320.61053      18574.04       19374.503     -1040.8489    
    128500   292.44296      325.59313      18541.482      19311.651     -770.06231    
    129000   293.45851      335.52943      18550.667      19332.316     -396.8875     
    129500   271.32457      331.08229      18550.084      19293.638     -416.06738    
    130000   293.80194      331.98952      18557.777      19336.408     -507.84338    
    130500   314.86697      340.90567      18543.857      19363.427     -117.34252    
    131000   290.89596      336.57565      18568.563      19347.362     -417.24645    
    131500   284.43804      325.93898      18559.838      19318.184     -773.83997    
    132000   299.92544      320.29019      18594.131      19370.372     -982.37293    
    132500   312.74313      319.12347      18557.496      19352.055     -724.83763    
    133000   309.08827      321.65653      18553.866      19345.403     -807.23643    
    133500   288.8025       329.42818      18560.837      19329.307     -354.15656    
    134000   291.77426      337.69289      18535.548      19316.8       -153.05814    
    134500   289.6481       339.25288      18532.879      19312.458     -117.13771    
    135000   314.89046      330.07911      18552.778      19361.558     -556.00103    
    135500   292.32573      329.48972      18542.527      19316.414     -452.8228     
    136000   312.44141      319.15162      18597.73       19391.86      -865.46882    
    136500   320.70437      319.49786      18606.702      19413.739     -829.44323    
    137000   306.77067      320.19097      18575.737      19362.285     -712.49495    
    137500   285.72235      326.62754      18542.481      19303.467     -315.47355    
    138000   301.12814      332.87283      18556.308      19346.959     -346.09124    
    138500   298.10368      335.4808       18565.762      19354.424     -238.00441    
    139000   288.43785      333.16092      18542.931      19314.579     -349.08266    
    139500   304.78936      333.21547      18587.192      19383.752     -531.40049    
    140000   289.39919      326.30149      18558.67       19324.92      -713.53247    
    140500   307.22623      317.73151      18570.362      19355.143     -831.67109    
    141000   288.86925      318.28094      18552.328      19309.751     -764.54308    
    141500   300.01151      329.17718      18569.373      19354.632     -392.05697    
    142000   299.57017      329.48379      18572.303      19357.197     -643.03762    
    142500   297.44135      333.62762      18538.915      19324.717     -75.945517    
    143000   304.89169      339.55243      18530.869      19333.921     -174.76517    
    143500   285.37124      330.76531      18552.079      19316.67      -430.92064    
    144000   308.33962      327.9323       18560.406      19357.081     -588.25467    
    144500   308.89482      317.56577      18565.726      19352.878     -926.20558    
    145000   290.36307      320.72338      18577.78       19339.917     -793.7205     
    145500   310.18664      324.99709      18554.85       19351.396     -612.93658    
    146000   305.30302      323.77201      18537.266      19325.164     -571.27751    
    146500   307.46671      341.03616      18557.745      19366.196     -244.82753    
    147000   310.18926      339.34082      18533.364      19344.259     -285.13722    
    147500   305.16215      331.03696      18551.013      19345.962     -448.96134    
    148000   309.45355      327.0206       18524.362      19321.818     -602.21867    
    148500   305.13263      326.67882      18540.51       19331.056     -488.9031     
    149000   286.59752      316.71387      18605.587      19357.99      -1073.1618    
    149500   292.16809      325.25148      18548.686      19318.095     -766.64575    
    150000   309.746        330.48393      18560.115      19361.479     -421.25338    
    150500   282.64786      334.6678       18526.894      19291.247     -586.46381    
    151000   291.07903      337.47181      18545.065      19325.039     -245.53988    
    151500   293.38003      337.46128      18552.686      19336.147     -151.62793    
    152000   288.5475       330.27419      18562.838      19331.766     -558.37943    
    152500   312.14628      324.62651      18538.632      19337.787     -916.20138    
    153000   319.05321      331.72466      18570.699      19387.453     -463.02687    
    153500   277.73659      323.78162      18589.707      19335.707     -1015.641     
    154000   297.32894      330.85382      18563.652      19346.509     -523.74725    
    154500   281.8378       334.00555      18516.479      19278.938     -314.90447    
    155000   312.61185      336.84157      18566.521      19378.599     -286.63458    
    155500   294.85877      337.03848      18555.612      19340.899     -479.39973    
    156000   317.97153      329.02717      18544.629      19357.041     -469.71584    
    156500   304.24611      327.8198       18536.563      19326.902     -478.8565     
    157000   295.10218      319.48109      18571.687      19339.786     -730.2365     
    157500   301.43047      319.45287      18576.597      19354.288     -694.58741    
    158000   290.80181      326.07404      18570.845      19339         -567.7216     
    158500   289.57778      321.00127      18586.837      19348.058     -755.31971    
    159000   318.07101      329.26525      18573.385      19386.186     -357.91924    
    159500   293.95937      336.30356      18539.337      19322.522     -303.54819    
    160000   315.31916      333.8563       18548.882      19362.09      -286.63893    
    160500   293.34358      330.02903      18551.187      19327.161     -582.75843    
    161000   294.65336      332.19988      18584.948      19365.084     -570.75795    
    161500   309.12247      320.68848      18585.316      19375.937     -791.37809    
    162000   300.88416      322.85277      18560.861      19341.122     -711.8122     
    162500   282.58545      329.59753      18561.526      19320.714     -601.08693    
    163000   295.93669      338.13716      18534.144      19322.168     -396.39058    
    163500   290.72892      337.24446      18516.657      19295.871     -385.6052     
    164000   282.55593      343.03497      18548.266      19320.846     -320.7112     
    164500   303.09519      336.18272      18550.753      19347.705     -587.12813    
    165000   308.92359      329.94666      18553.017      19352.593     -702.27656    
    165500   296.5978       331.1189       18537.235      19319.246     -600.8889     
    166000   290.23611      331.90917      18552.394      19325.524     -689.96351    
    166500   292.73849      329.77906      18545.173      19319.977     -589.36692    
    167000   315.82124      332.55032      18566.666      19379.332     -484.30103    
    167500   290.0402       331.31313      18519.655      19291.891     -489.61282    
    168000   286.88002      331.10763      18571.808      19339.035     -372.26563    
    168500   318.09993      331.30037      18539.77       19354.65      -612.27175    
    169000   302.86707      330.09805      18563.544      19354.065     -484.96779    
    169500   302.89753      328.10885      18554.417      19342.995     -566.2248     
    170000   305.5274       318.66546      18569.363      19352.495     -875.16281    
    170500   287.99797      319.09348      18542.348      19299.26      -697.23873    
    171000   316.18215      326.13938      18557.536      19364.34      -543.01166    
    171500   305.89835      334.91919      18585.185      19385.135     -187.73107    
    172000   294.16656      332.25909      18559.338      19338.793     -516.44605    
    172500   277.50845      330.93185      18585.888      19338.692     -455.09458    
    173000   314.93836      328.68501      18540.671      19348.13      -607.13769    
    173500   302.8201       327.65243      18547.35       19335.354     -726.2317     
    174000   287.28356      325.65289      18526.317      19288.702     -626.89805    
    174500   284.5398       320.0286       18560.722      19313.312     -828.46573    
    175000   303.89825      332.04914      18553.708      19347.747     -573.71041    
    175500   304.30175      333.76414      18572.99       19369.358     -422.37182    
    176000   296.27894      331.12315      18532.127      19313.657     -358.11854    
    176500   296.79282      335.22604      18555.543      19341.958     -201.28098    
    177000   296.15759      329.45339      18557.959      19337.635     -593.76417    
    177500   312.99392      326.59132      18553.37       19355.779     -707.82316    
    178000   293.03189      321.80918      18566.846      19334.127     -775.86368    
    178500   308.49104      320.83531      18560.119      19349.927     -879.64705    
    179000   290.9553       331.11934      18541.709      19315.143     -510.304      
    179500   288.95417      338.98701      18547.975      19326.234     -362.36535    
    180000   304.94825      337.38909      18557.769      19358.744     -369.0386     
    180500   301.82206      332.35375      18535.481      19326.669     -347.31399    
    181000   283.36357      329.21166      18581.4        19341.385     -518.88947    
    181500   301.32893      319.06079      18543.025      19320.17      -681.37631    
    182000   299.85751      316.11994      18558.405      19330.372     -707.3795     
    182500   289.14354      322.24377      18560.094      19321.898     -751.97612    
    183000   320.28352      319.22685      18525.847      19331.973     -545.08167    
    183500   303.5113       319.93226      18551.809      19333.143     -675.88421    
    184000   296.12619      328.59785      18547.011      19325.783     -386.26686    
    184500   312.5914       329.29751      18530.392      19334.895     -324.14267    
    185000   303.78947      320.59319      18555.699      19338.117     -538.78917    
    185500   287.92371      319.06168      18556.966      19313.733     -350.46309    
    186000   314.72779      312.10758      18559.79       19350.351     -525.79079    
    186500   302.31962      308.49856      18581.03       19349.119     -801.35136    
    187000   295.43841      313.08165      18543.024      19305.235     -683.26405    
    187500   307.17338      313.83718      18567.09       19347.896     -473.13236    
    188000   290.074        313.87604      18566.765      19321.616     -779.88298    
    188500   302.56926      322.1895       18548.27       19330.43      -277.42485    
    189000   278.85998      328.05579      18546.695      19298.677     -188.02002    
    189500   286.63371      312.32663      18525.61       19273.681     -485.99802    
    190000   290.01626      301.53306      18538.214      19280.633     -827.3863     
    190500   292.45744      310.24553      18556.821      19311.664     -591.01605    
    191000   299.14513      304.08817      18564.683      19323.536     -606.8393     
    191500   287.94508      306.496        18567.049      19311.283     -746.17839    
    192000   288.64601      321.20692      18525.549      19285.559     -406.22548    
    192500   285.33054      326.07394      18525.967      19285.804     -355.57406    
    193000   280.43266      320.44652      18575.41       19322.174     -714.28694    
    193500   308.32816      325.24585      18528.509      19322.479     -433.1894     
    194000   298.29007      319.40359      18528.148      19301.016     -551.74106    
    194500   300.14983      314.78749      18577.294      19348.374     -673.54368    
    195000   297.53515      313.52953      18567.563      19333.409     -630.63568    
    195500   295.52723      318.94009      18547.245      19315.449     -654.39038    
    196000   299.6728       315.87562      18570.62       19342.062     -691.25329    
    196500   293.0846       316.20524      18540.715      19302.471     -487.28495    
    197000   311.14233      328.32721      18558.79       19360.119     -329.71018    
    197500   290.9762       323.39413      18556.564      19322.304     -467.82219    
    198000   305.52154      323.38426      18554.986      19342.828     -519.63026    
    198500   290.06826      322.38001      18504.691      19268.037     -475.23177    
    199000   314.31766      323.6356       18568.755      19370.22      -672.03163    
    199500   305.07131      316.53669      18564.425      19344.735     -777.94258    
    200000   311.96824      318.43976      18555.601      19348.299     -622.56823    
    200500   306.49028      330.67552      18580.308      19376.914     -385.65994    
    201000   301.35307      322.96065      18548.712      19329.794     -567.63759    
    201500   301.68969      330.65335      18561.744      19351.03      -394.69439    
    202000   293.29414      329.03475      18561.303      19336.207     -586.59423    
    202500   315.12911      331.37239      18545.136      19355.571     -391.77889    
    203000   285.23893      324.22378      18560.63       19318.477     -667.38222    
    203500   284.6347       319.52306      18550.901      19303.13      -623.0727     
    204000   306.4629       321.7862       18567.226      19354.902     -586.44499    
    204500   298.03135      322.36466      18546.557      19321.992     -564.54874    
    205000   305.74868      322.83907      18576.847      19364.489     -586.52634    
    205500   308.33231      327.24257      18557.216      19353.189     -397.06359    
    206000   293.61326      330.83634      18532.959      19310.15      -350.55815    
    206500   285.35959      329.51927      18593.154      19356.48      -311.76976    
    207000   309.71967      325.40316      18561.722      19357.965     -581.03791    
    207500   320.96669      323.07177      18561.03       19372.039     -641.22578    
    208000   293.61457      322.14446      18549.165      19317.666     -839.15659    
    208500   288.70858      332.23156      18573.381      19344.511     -557.85421    
    209000   292.35045      333.39048      18548.822      19326.647     -290.60521    
    209500   283.12615      328.84753      18558.821      19318.081     -631.50635    
    210000   288.43632      328.8419       18513.17       19280.497     -302.85581    
    210500   302.69806      330.99389      18583.99       19375.15      -463.97304    
    211000   305.5759       322.56137      18554.996      19342.097     -546.2975     
    211500   300.57356      318.34408      18545.893      19321.173     -770.65809    
    212000   285.58006      328.19395      18551.749      19314.086     -590.20876    
    212500   292.725        321.12896      18552.93       19319.064     -620.68       
    213000   304.96198      319.57518      18587.792      19370.975     -680.81012    
    213500   303.78872      324.73939      18569.873      19356.436     -357.48298    
    214000   295.00793      329.86791      18514.809      19293.152     -327.75507    
    214500   293.18916      320.22798      18540.858      19306.796     -583.91413    
    215000   276.3019       324.02315      18537.55       19281.611     -435.22451    
    215500   308.76695      317.81339      18558.411      19345.616     -425.33233    
    216000   296.3674       310.3595       18560.401      19321.302     -794.13799    
    216500   304.53559      311.42183      18581.691      19356.072     -756.83346    
    217000   299.1643       321.16236      18586.035      19361.991     -527.86019    
    217500   307.03526      323.89088      18549.883      19340.533     -504.47384    
    218000   286.68099      324.25881      18561.364      19321.439     -380.75679    
    218500   296.77038      328.17189      18531.172      19310.498     -380.59688    
    219000   297.17431      326.32021      18553.23       19331.318     -296.08476    
    219500   303.76984      324.28478      18561.073      19347.152     -537.16457    
    220000   297.18694      324.7254       18536.437      19312.949     -758.12462    
    220500   281.39699      326.66872      18561.76       19316.212     -560.9388     
    221000   287.89337      317.70435      18562.258      19317.622     -607.18399    
    221500   271.23058      320.27733      18550.193      19282.799     -477.37269    
    222000   307.93083      316.9135       18596.307      19381.341     -465.66397    
    222500   305.06375      323.86856      18530.181      19317.811     -367.13916    
    223000   306.82209      318.46972      18568.81       19353.714     -389.32808    
    223500   307.12348      323.55646      18572.676      19363.125     -510.35626    
    224000   321.4838       315.39281      18525.491      19329.608     -565.21446    
    224500   300.84032      314.88078      18566.693      19338.915     -620.8819     
    225000   287.2091       310.17854      18551.274      19298.072     -666.71768    
    225500   280.19836      316.25778      18546.203      19288.422     -483.58781    
    226000   308.86896      317.68445      18551.152      19338.383     -598.68068    
    226500   301.23331      318.64243      18554.652      19331.233     -552.78893    
    227000   289.25515      323.29086      18548.613      19311.633     -434.40002    
    227500   297.93005      321.70634      18549.82       19324.443     -433.74829    
    228000   298.90359      319.62655      18538.504      19312.528     -546.65604    
    228500   301.93588      315.12072      18543.546      19317.674     -696.97214    
    229000   294.29702      324.75804      18574.271      19346.424     -370.44361    
    229500   317.25853      313.46795      18539.361      19335.129     -640.92453    
    230000   300.25608      316.24342      18558.373      19331.07      -677.33265    
    230500   289.93312      317.21775      18543.264      19301.242     -518.94218    
    231000   292.89024      318.1005       18535.68       19299.036     -649.42808    
    231500   312.95907      319.96302      18590.13       19385.858     -560.85684    
    232000   283.76771      321.99979      18541.821      19295.209     -413.38718    
    232500   299.36568      319.43573      18560.654      19335.19      -425.33375    
    233000   286.24745      313.41165      18543.5        19292.068     -574.32376    
    233500   310.51019      312.22979      18566.306      19350.577     -500.48004    
    234000   297.80239      314.0472       18586.711      19353.482     -514.60078    
    234500   291.19215      304.90242      18571.355      19318.931     -792.87503    
    235000   300.2144       312.77031      18538.363      19307.523     -693.72941    
    235500   294.3082       320.76889      18550.204      19318.384     -458.39283    
    236000   312.54146      314.15825      18561.157      19350.445     -629.51364    
    236500   274.70895      312.50728      18555.082      19285.205     -525.96533    
    237000   299.87565      318.56153      18546.372      19320.808     -333.37494    
    237500   304.63006      312.14745      18584.071      19359.321     -435.81655    
    238000   279.17156      308.5192       18574.898      19307.817     -560.97581    
    238500   306.36053      303.94293      18544.504      19314.18      -586.30083    
    239000   272.59748      297.97125      18577.248      19289.625     -684.22447    
    239500   303.76015      289.79483      18581.569      19333.144     -942.73266    
    240000   289.72791      305.33251      18550.752      19296.532     -439.12642    
    240500   292.23244      313.40998      18539.098      19296.763     -367.32711    
    241000   299.33481      316.10522      18506.781      19277.939     -396.82072    
    241500   293.64268      318.58227      18537.822      19302.804     -356.34734    
    242000   299.57863      315.15589      18563.769      19334.348     -515.61081    
    242500   302.44445      307.03404      18532.379      19299.193     -696.70612    
    243000   290.00351      304.12935      18570.844      19315.84      -642.63506    
    243500   291.2588       298.20962      18573.298      19314.283     -842.199      
    244000   293.90081      300.70652      18546.065      19293.563     -703.96698    
    244500   305.24637      313.78418      18534.7        19312.524     -473.91993    
    245000   322.65934      313.7805       18553.144      19357.435     -430.72309    
    245500   292.46692      315.03827      18548.991      19308.641     -313.14762    
    246000   297.51137      312.08464      18514.963      19279.329     -243.20491    
    246500   279.28673      303.69073      18546.741      19275.007     -504.52516    
    247000   296.46873      296.57643      18531.552      19278.824     -796.41311    
    247500   306.52328      298.02638      18561.241      19325.248     -844.88865    
    248000   284.10155      294.61298      18556.616      19283.124     -718.43318    
    248500   289.41583      304.02627      18569.93       19313.93      -586.31668    
    249000   294.34261      307.37357      18559.302      19314.139     -268.28737    
    249500   293.77802      308.69501      18534.547      19289.847     -344.90924    
    250000   296.15857      309.62826      18535.079      19294.932     -262.1818     
    250500   293.91951      306.46293      18532.944      19286.227     -435.02521    
    251000   277.42658      297.56601      18556.661      19275.975     -807.35795    
    251500   280.82422      299.58573      18549.796      19276.294     -619.94761    
    252000   304.68605      306.93028      18556.711      19326.829     -621.81415    
    252500   306.81492      301.78289      18530.939      19299.146     -698.30986    
    253000   293.55521      303.20719      18555.974      19305.448     -424.38024    
    253500   294.63661      308.60477      18511.482      19267.997     -181.41415    
    254000   317.82317      305.86617      18563.729      19352.754     -504.34224    
    254500   280.75502      311.35076      18561.591      19299.749     -450.14346    
    255000   314.98801      310.22599      18571.803      19360.878     -355.56506    
    255500   312.30694      301.15411      18584.945      19360.872     -695.79474    
    256000   300.52678      305.14481      18556.95       19318.96      -618.14662    
    256500   277.93439      295.79266      18575.638      19293.95      -731.76627    
    257000   312.40768      305.47395      18533.007      19313.407     -480.95735    
    257500   296.28747      308.17425      18527.472      19286.066     -645.95581    
    258000   303.33053      317.27892      18530.565      19308.971     -207.44817    
    258500   289.58252      314.74857      18548.816      19303.792     -388.94587    
    259000   315.35201      310.08333      18532.573      19322.059     -531.96872    
    259500   308.99118      304.98979      18537.754      19312.476     -468.09048    
    260000   281.29411      305.87599      18537.708      19271.211     -659.44138    
    260500   290.9426       304.15061      18542.682      19289.127     -679.25068    
    261000   305.01751      303.83765      18540.004      19307.533     -691.51623    
    261500   278.88466      307.56537      18578.94       19310.469     -539.35905    
    262000   292.32352      306.98973      18537.214      19288.598     -366.70706    
    262500   292.46073      309.71811      18528.38       19282.7       -423.95521    
    263000   312.36319      304.11032      18540.224      19319.193     -523.80692    
    263500   294.04401      313.70286      18518.559      19279.272     -412.17637    
    264000   305.11188      296.53533      18538.521      19298.892     -740.4387     
    264500   280.15766      296.09007      18566.877      19288.867     -643.5409     
    265000   309.06659      300.07447      18551.993      19321.914     -649.28508    
    265500   280.66685      305.19392      18561.844      19293.711     -496.81494    
    266000   290.99799      300.88055      18550.479      19293.738     -631.15973    
    266500   294.51666      311.41295      18540.065      19299.206     -475.37485    
    267000   287.40621      311.83145      18544.877      19293.627     -237.14454    
    267500   308.91107      303.88685      18541.548      19315.045     -372.93919    
    268000   287.74277      303.51929      18544.54       19285.489     -674.10535    
    268500   308.09993      303.05651      18543.835      19315.269     -549.70751    
    269000   291.44234      299.16867      18561.739      19303.962     -814.44019    
    269500   295.89455      301.39509      18545.238      19296.456     -621.44972    
    270000   305.13144      306.66693      18565.629      19336.161     -505.29663    
    270500   296.53613      307.30358      18591.171      19349.272     -379.81593    
    271000   309.75454      310.15205      18539.763      19320.808     -118.55024    
    271500   282.26102      308.0209       18563.76       19300.878     -407.6475     
    272000   288.69841      306.81192      18571.169      19316.864     -431.36069    
    272500   301.84699      302.13298      18545.755      19306.76      -698.14851    
    273000   295.69112      303.96502      18575.372      19328.85      -859.38748    
    273500   303.80829      305.4817       18574.162      19341.497     -738.89066    
    274000   305.06301      304.42399      18579.267      19347.452     -550.03416    
    274500   286.10452      307.43631      18530.756      19273.132     -351.35024    
    275000   311.00153      310.23203      18558.67       19341.691     -476.95547    
    275500   306.2088       313.74674      18554.301      19333.551     -252.73906    
    276000   304.44863      314.68093      18549.637      19327.145     -225.66922    
    276500   290.29539      304.64825      18532.782      19278.741     -553.67181    
    277000   299.7612       298.53128      18535.02       19289.252     -739.10146    
    277500   291.38554      303.39013      18553.445      19299.803     -594.35856    
    278000   300.09636      302.207        18555.65       19314.068     -778.39833    
    278500   316.26434      301.33409      18584.645      19366.768     -724.37021    
    279000   300.14433      305.71765      18525.393      19287.394     -436.29276    
    279500   293.40909      309.29948      18591.206      19346.55      -469.08138    
    280000   292.60448      309.61663      18506.61       19261.047     -191.27215    
    280500   287.51483      308.92145      18537.118      19283.124     -339.0245     
    281000   302.94382      300.15506      18538.412      19299.106     -558.82981    
    281500   292.8943       295.75614      18559.515      19300.533     -746.29233    
    282000   310.62257      294.7815       18541.592      19308.586     -870.13137    
    282500   306.50854      297.20141      18577.298      19340.458     -728.81207    
    283000   291.53762      299.75866      18547.816      19290.774     -650.45896    
    283500   296.22451      306.42493      18541.518      19298.268     -247.65463    
    284000   290.56725      303.83166      18527.242      19272.797     -62.772534    
    284500   287.66286      297.18592      18554.072      19288.567     -513.47061    
    285000   296.52829      291.63627      18546.158      19288.58      -722.33948    
    285500   298.67536      290.28953      18568.051      19312.391     -658.73959    
    286000   292.87036      292.89659      18553.957      19292.079     -771.4145     
    286500   305.84643      292.86838      18558.412      19316.232     -848.77546    
    287000   299.73011      307.00408      18546.086      19308.743     -339.49733    
    287500   312.22535      311.39707      18530.892      19316.939     -204.73632    
    288000   294.13783      304.68968      18569.066      19320.907     -380.91949    
    288500   286.8498       301.33774      18523.76       19261.17      -498.21803    
    289000   311.72018      303.18437      18574.626      19351.692     -597.42082    
    289500   298.00598      294.86097      18550.563      19298.456     -849.41614    
    290000   298.45552      302.11259      18555.156      19310.984     -656.3417     
    290500   295.15726      308.28833      18546.806      19303.796     -605.703      
    291000   301.30168      306.67566      18561.69       19326.409     -506.22154    
    291500   301.00791      306.14352      18567.163      19330.903     -516.52552    
    292000   300.42028      311.01492      18555.461      19323.179     -179.52198    
    292500   277.61818      312.05916      18584.361      19318.459     -340.35852    
    293000   304.26239      303.6887       18559.015      19325.247     -551.96139    
    293500   291.37025      301.40477      18537.005      19281.355     -683.04529    
    294000   308.10893      302.38718      18547.052      19317.83      -623.54514    
    294500   297.88868      298.55122      18571.785      19323.19      -974.97345    
    295000   291.84882      305.58787      18523.22       19272.481     -644.90322    
    295500   302.87311      319.60096      18535.391      19315.424     -249.02018    
    296000   304.46182      320.44045      18536.167      19319.454     -271.07366    
    296500   300.74454      316.22251      18519.445      19292.863     -165.76713    
    297000   302.71327      308.47293      18544.22       19312.882     -440.43994    
    297500   296.74645      303.84845      18552.752      19307.718     -741.91979    
    298000   313.51486      306.22441      18556.164      19338.998     -637.34337    
    298500   293.50611      304.27486      18527.464      19277.931     -734.72983    
    299000   299.08443      305.67793      18587.561      19347.911     -1008.544     
    299500   315.95564      309.31277      18545.024      19334.657     -483.91387    
    300000   300.6131       322.48063      18555.392      19334.868     -183.55661    
    300500   302.98216      317.52274      18564.484      19342.604     -311.73727    
    301000   294.75883      317.32591      18529.103      19294.526     -435.82844    
    301500   296.7628       315.79142      18541.585      19308.519     -416.1948     
    302000   297.49308      306.0653       18524.547      19282.865     -578.3311     
    302500   315.6667       292.99575      18565.405      19338.281     -1028.8779    
    303000   309.25099      300.12799      18564.69       19334.945     -752.11874    
    303500   281.23695      302.63021      18564.436      19294.606     -757.18409    
    304000   284.61752      312.67645      18504.739      19250.095     -293.865      
    304500   278.84491      309.10681      18534.615      19267.625     -491.60495    
    305000   293.75431      307.97523      18514.615      19269.159     -249.01973    
    305500   297.90127      311.26437      18590.549      19354.687     -460.73629    
    306000   301.36522      303.75126      18547.279      19309.169     -490.08981    
    306500   273.52939      293.20529      18567.696      19276.724     -1066.3917    
    307000   301.55464      297.6825       18533.007      19289.117     -638.05622    
    307500   289.60847      307.75499      18562.985      19311.007     -754.56436    
    308000   289.14381      312.85605      18544.178      19296.595     -491.77275    
    308500   304.13906      314.23993      18539.754      19316.35      -376.58304    
    309000   297.14337      315.41112      18534.295      19301.427     -255.9122     
    309500   304.74943      308.79089      18549.253      19321.328     -324.88774    
    310000   302.95224      299.3176       18529.282      19289.151     -645.60174    
    310500   301.32182      296.39904      18549.702      19304.174     -710.51084    
    311000   295.08135      304.34782      18526.721      19279.655     -623.92178    
    311500   301.447        304.90835      18571.366      19334.538     -771.20141    
    312000   287.95767      305.05485      18531.204      19274.016     -635.82534    
    312500   300.05555      301.58153      18536.719      19294.449     -505.96319    
    313000   314.59011      306.77401      18513.61       19298.628     -127.89757    
    313500   291.27349      305.77582      18539.834      19288.408     -387.21413    
    314000   291.67665      304.9179       18550.406      19298.735     -487.76038    
    314500   289.51735      305.89197      18576.252      19322.272     -648.1993     
    315000   296.89567      300.13252      18534.668      19286.145     -929.20635    
    315500   286.15951      301.63418      18573.262      19309.919     -656.11548    
    316000   309.64473      301.88129      18557.898      19330.505     -471.28994    
    316500   291.9278       305.92274      18542.906      19292.621     -457.67655    
    317000   298.47762      311.82501      18514.552      19280.127     -295.45229    
    317500   317.0924       308.65272      18558.264      19348.965     -321.51843    
    318000   294.27182      310.47385      18549.232      19307.062     -362.91017    
    318500   294.70122      300.37836      18529.412      19277.799     -724.43404    
    319000   285.20875      306.07123      18579.416      19319.066     -614.24664    
    319500   262.88986      303.49144      18534.382      19237.522     -670.78744    
    320000   297.24001      307.90986      18592.669      19352.447     -858.70344    
    320500   295.68032      311.73499      18531.463      19292.695     -536.63489    
    321000   292.16661      312.25366      18540.128      19296.537     -297.10881    
    321500   290.33598      303.39383      18541.413      19286.179     -430.78312    
    322000   298.41848      310.13696      18529.673      19293.47      -257.12147    
    322500   293.47918      303.64966      18547.652      19297.452     -439.65486    
    323000   285.45583      298.49907      18551.662      19284.114     -858.67679    
    323500   299.54264      305.91674      18545.723      19307.008     -803.199      
    324000   297.83189      308.18942      18548.841      19309.799     -507.59417    
    324500   282.69361      309.921        18553.231      19292.906     -690.8761     
    325000   282.53376      314.32659      18558.988      19302.826     -253.22324    
    325500   310.88507      322.38163      18527.943      19322.936     -206.248      
    326000   295.43099      313.37772      18536.439      19298.935     -494.06662    
    326500   310.20535      315.95744      18531.305      19318.841     -434.35997    
    327000   307.34861      305.17318      18573.023      19345.431     -748.11281    
    327500   297.78776      302.32248      18541.711      19296.734     -729.1798     
    328000   298.65446      308.31108      18545.371      19307.701     -573.83649    
    328500   320.75605      311.39876      18572.1        19371.117     -728.61066    
    329000   303.44004      316.61145      18543.088      19320.993     -572.6457     
    329500   289.034        316.62739      18503.859      19259.88      -189.16542    
    330000   304.1348       316.36327      18551.726      19330.439     -416.3106     
    330500   287.30195      311.13812      18509.121      19257.019     -380.91406    
    331000   293.06589      309.26579      18566.889      19321.677     -637.29603    
    331500   289.45598      309.77576      18562.048      19311.858     -598.85969    
    332000   323.58191      303.2627       18560.483      19355.659     -893.60157    
    332500   282.06273      307.01409      18562.178      19297.988     -598.50545    
    333000   286.48862      316.92211      18569.368      19321.814     -389.17176    
    333500   287.83363      311.70864      18541.871      19291.148     -512.83401    
    334000   313.15608      314.86703      18563.186      19354.117     -494.75605    
    334500   295.35178      320.85282      18525.724      19295.575     -258.15294    
    335000   341.78884      314.31625      18548.885      19382.793     -570.11942    
    335500   293.7898       304.21748      18559.339      19310.18      -605.04296    
    336000   287.37753      311.98697      18551.12       19299.982     -605.30521    
    336500   301.57562      304.97175      18520.2        19283.631     -560.26229    
    337000   278.16608      302.21683      18545.375      19270.464     -790.22944    
    337500   298.48764      309.09229      18538.621      19301.478     -578.80855    
    338000   290.26555      313.5227       18570.011      19324.799     -318.95418    
    338500   301.33158      309.0013       18554.064      19321.153     -436.74555    
    339000   298.48546      308.00411      18535.419      19297.185     -215.18576    
    339500   304.15648      299.50058      18552.628      19314.511     -655.77859    
    340000   318.17063      297.68211      18523.361      19304.73      -472.1551     
    340500   302.92181      296.05309      18571.665      19328.224     -814.53957    
    341000   290.5068       293.14835      18544.84       19279.62      -879.27837    
    341500   297.88422      310.31285      18531.935      19295.096     -540.77621    
    342000   309.97293      308.2457       18551.502      19330.972     -322.31403    
    342500   292.76363      314.85688      18527.927      19287.847     -299.90374    
    343000   299.78029      312.07675      18500.553      19268.36      -357.29887    
    343500   313.32613      307.06208      18562.166      19345.551     -515.65779    
    344000   279.49112      300.55306      18560.602      19286.041     -696.49952    
    344500   292.14879      301.94687      18571.997      19318.072     -633.7498     
    345000   307.58165      300.16429      18581.545      19349.299     -690.50044    
    345500   286.66588      304.26782      18552.68       19292.741     -779.17605    
    346000   309.72456      308.64647      18535.685      19315.178     -418.42172    
    346500   286.8581       315.49264      18534.734      19286.312     -344.77762    
    347000   278.42811      313.49192      18553.766      19290.528     -540.94669    
    347500   295.47041      313.84432      18560.717      19323.739     -346.82551    
    348000   298.56191      306.71593      18541.204      19301.797     -568.30051    
    348500   263.86292      306.02004      18555.516      19262.664     -665.75675    
    349000   283.52827      307.59917      18580.109      19318.731     -865.44575    
    349500   300.26897      305.95878      18567.134      19329.566     -660.61987    
    350000   293.83182      305.05331      18559.156      19310.896     -540.62699    
    350500   306.75633      302.03642      18547.003      19315.375     -355.69612    
    351000   291.72132      300.18559      18534.328      19277.992     -524.11623    
    351500   302.27545      302.37787      18584.692      19346.593     -401.71787    
    352000   280.01084      299.24526      18557.295      19282.217     -525.27219    
    352500   288.77214      297.7969       18534.187      19270.979     -623.58378    
    353000   295.40428      299.04712      18567.021      19315.146     -637.48223    
    353500   309.2668       300.55889      18526.562      19297.273     -499.6053     
    354000   302.80675      301.48543      18540.506      19302.322     -714.05355    
    354500   308.77213      309.68187      18545.118      19324.199     -444.82571    
    355000   313.49394      304.80647      18555.435      19336.819     -531.89118    
    355500   311.33068      304.84357      18572.552      19350.685     -365.17674    
    356000   291.31919      302.50531      18547.985      19293.357     -709.53361    
    356500   284.47241      307.20763      18531.139      19270.805     -285.6198     
    357000   309.54289      297.37158      18566.561      19334.504     -816.1384     
    357500   287.2527       296.01335      18554.954      19287.653     -557.70402    
    358000   293.32581      295.28209      18543.91       19285.109     -688.21359    
    358500   290.18627      296.3947       18564.95       19302.489     -533.35237    
    359000   289.75837      307.12802      18533.107      19280.729     -445.18636    
    359500   293.68303      309.24305      18518.376      19274.08      -321.05186    
    360000   294.31239      301.27383      18545.55       19294.241     -677.01669    
    360500   298.26344      301.25342      18558.705      19313.382     -505.37661    
    361000   276.13544      307.12152      18518.018      19244.924     -369.20395    
    361500   300.20336      303.73946      18551.217      19311.33      -630.58715    
    362000   288.27706      300.89445      18567.298      19306.435     -807.06935    
    362500   324.26794      307.2854       18571.043      19371.285     -566.42976    
    363000   282.2285       307.9937       18521.534      19258.575     -403.3769     
    363500   279.99902      299.15526      18557.642      19282.455     -682.18198    
    364000   302.54235      301.00609      18537.596      19298.531     -372.21143    
    364500   311.31603      302.03354      18545.675      19320.975     -438.17034    
    365000   317.01031      294.28198      18536.936      19313.141     -625.11621    
    365500   310.03995      298.12617      18533.002      19302.455     -604.6482     
    366000   315.7124       302.35825      18544.654      19326.962     -484.62019    
    366500   311.83479      298.86314      18517.152      19290.07      -448.77016    
    367000   307.75949      290.31524      18567.987      19326.163     -560.92715    
    367500   299.29866      297.38742      18527.083      19279.468     -499.9166     
    368000   283.73071      296.33358      18549.009      19276.674     -608.5361     
    368500   279.77024      306.50608      18527.652      19259.469     -355.2964     
    369000   314.39793      297.90199      18544.824      19320.678     -797.61073    
    369500   304.09076      305.346        18561.868      19329.497     -701.96513    
    370000   294.22957      302.28883      18511.22       19260.801     -427.42993    
    370500   299.04057      295.8759       18573.041      19323.523     -779.94744    
    371000   284.10649      297.09204      18532.734      19261.729     -591.76966    
    371500   287.65288      301.9415       18503.874      19243.109     -406.25585    
    372000   301.79168      299.90752      18540.679      19299.375     -414.56862    
    372500   301.22057      297.03685      18521.553      19276.51      -542.34084    
    373000   271.3818       297.54395      18557.692      19267.794     -423.57256    
    373500   303.38636      292.25907      18536.027      19289.498     -710.80116    
    374000   282.15209      287.05376      18588.425      19304.41      -791.01748    
    374500   319.67584      296.1519       18515.789      19297.916     -582.1682     
    375000   301.76068      301.74876      18543.56       19304.05      -511.16546    
    375500   286.73067      300.5533       18525.977      19262.422     -386.62775    
    376000   303.87181      299.80096      18550.781      19312.532     -619.33885    
    376500   290.41667      296.65319      18541.922      19280.071     -529.10338    
    377000   288.53926      298.16908      18554.89       19291.7       -479.3812     
    377500   305.11726      298.10346      18528.39       19290.337     -498.16898    
    378000   285.42571      290.58839      18541.211      19265.707     -633.03518    
    378500   304.24089      290.76497      18573.126      19326.402     -601.25667    
    379000   291.99813      293.06654      18549.764      19286.729     -833.9581     
    379500   289.87526      303.93578      18558.514      19303.122     -391.0792     
    380000   284.78136      303.49399      18550.304      19286.727     -414.02922    
    380500   297.49828      300.23393      18544.36       19296.855     -353.38957    
    381000   308.43512      305.98833      18531.485      19306.361     -293.85739    
    381500   292.34951      299.13377      18531.075      19274.643     -644.92131    
    382000   303.69256      292.94993      18536.592      19291.22      -572.84824    
    382500   298.9671       295.62967      18560.678      19310.801     -786.03049    
    383000   294.54555      294.14608      18544.478      19286.396     -836.10908    
    383500   292.04722      303.35352      18544.771      19292.098     -524.44774    
    384000   288.90054      305.58225      18519.595      19264.368     -442.17172    
    384500   283.2803       312.75575      18514.859      19258.261     -267.36919    
    385000   299.70937      308.77569      18552.373      19316.771     -238.88984    
    385500   290.16031      303.16542      18575.726      19319.997     -595.89096    
    386000   292.55016      296.58224      18548.71       19290.031     -665.88688    
    386500   288.5607       296.80892      18551.558      19287.04      -725.16069    
    387000   305.04193      296.5904       18547.343      19307.662     -746.8225     
    387500   296.40321      293.09308      18559.947      19303.636     -735.18324    
    388000   315.22624      302.51791      18547.702      19329.43      -405.55291    
    388500   281.27548      309.00627      18536.757      19273.362     -251.24134    
    389000   297.25283      303.7926       18531.912      19287.592     -277.53049    
    389500   299.25906      299.03214      18567.245      19321.215     -557.6631     
    390000   301.24753      297.20419      18553.129      19308.293     -573.2502     
    390500   283.68776      286.26101      18561.345      19278.872     -831.77415    
    391000   288.44528      286.55155      18577.483      19302.533     -736.28612    
    391500   285.95764      288.36794      18540.197      19263.281     -793.05634    
    392000   298.90382      301.83325      18556.589      19312.82      -379.08939    
    392500   298.41081      298.27921      18534.843      19286.771     -416.35415    
    393000   291.74261      303.12005      18549.113      19295.744     -141.2515     
    393500   298.34392      300.12894      18525.223      19278.898     -283.53801    
    394000   292.59506      292.70239      18575.834      19313.343     -559.53601    
    394500   281.86883      287.87814      18532.725      19249.104     -771.28581    
    395000   304.32054      288.74244      18533.742      19285.117     -779.38879    
    395500   292.909        284.55683      18560.835      19290.676     -973.85812    
    396000   301.11628      293.44715      18553.27       19304.478     -478.14404    
    396500   301.95273      295.81446      18553.377      19308.224     -355.02353    
    397000   284.68886      300.53388      18535.168      19268.489     -271.8307     
    397500   266.05483      303.20808      18554.74       19262.408     -325.001      
    398000   299.39131      296.81224      18526.396      19278.347     -371.86387    
    398500   310.40351      285.06485      18566.769      19323.713     -749.08731    
    399000   289.17767      284.43553      18552.261      19276.308     -743.02713    
    399500   292.47845      284.97945      18570.458      19300.067     -850.09037    
    400000   299.66411      284.50377      18541.284      19281.341     -585.8549     
    400500   294.21207      292.61747      18539.851      19279.733     -651.5754     
    401000   282.94714      304.92881      18534.597      19269.666     -104.72922    
    401500   311.58792      300.02408      18522.413      19296.117     -272.47879    
    402000   285.71925      294.32673      18550.368      19279.049     -478.9998     
    402500   284.97418      291.47306      18558.995      19283.69      -454.70851    
    403000   314.42327      285.69255      18567.168      19330.851     -834.3749     
    403500   298.77643      277.09246      18553.137      19284.433     -801.36893    
    404000   293.91907      284.80276      18559.766      19291.388     -813.76347    
    404500   315.56853      290.01677      18540.645      19310.393     -567.83147    
    405000   302.99903      295.43608      18537.728      19293.787     -332.2813     
    405500   304.62768      300.63093      18536.418      19300.147     -310.40142    
    406000   309.01218      303.81277      18538.882      19312.459     -279.87748    
    406500   276.33152      300.02024      18559.967      19280.07      -427.24782    
    407000   293.44786      292.15996      18571.163      19309.426     -673.72033    
    407500   314.83684      288.51156      18539.731      19306.861     -712.88378    
    408000   303.82708      285.06098      18547.069      19294.012     -815.89568    
    408500   291.17917      290.24608      18536.098      19268.998     -551.88917    
    409000   285.9902       294.56379      18544.716      19274.046     -522.69408    
    409500   305.9742       300.16663      18532.752      19298.064     -358.49617    
    410000   325.67691      298.93095      18516.498      19310.527     -366.3095     
    410500   282.06814      297.33278      18545.529      19271.665     -456.94583    
    411000   286.45445      290.96336      18532.021      19258.456     -534.73605    
    411500   318.04128      291.23006      18562.067      19336.788     -610.26983    
    412000   303.02917      288.92238      18535.151      19284.742     -825.92312    
    412500   295.0781       293.33989      18556.681      19298.602     -697.25518    
    413000   290.84339      297.25206      18571.423      19310.819     -609.65535    
    413500   298.6475       297.86346      18558.216      19310.088     -456.98069    
    414000   297.81102      308.10292      18501.115      19261.954     -229.68114    
    414500   296.83531      300.54881      18525.045      19276.847     -336.44011    
    415000   294.78127      293.44103      18548.88       19290.451     -509.49724    
    415500   294.88637      286.33633      18543.629      19278.255     -701.02007    
    416000   301.19644      287.4961       18555.296      19300.675     -466.37345    
    416500   314.86499      279.16106      18559.02       19316.843     -911.92596    
    417000   316.68739      290.58802      18550.601      19322.621     -521.63353    
    417500   311.36786      296.18619      18538.797      19308.329     -324.71568    
    418000   294.20095      302.48646      18523.241      19272.975     -316.36486    
    418500   296.10184      286.41721      18535.396      19271.952     -575.05828    
    419000   307.73545      298.67822      18560.719      19327.221     -358.59648    
    419500   302.72504      292.18971      18532.135      19284.532     -470.0236     
    420000   303.50555      282.91838      18569.033      19313.345     -942.84671    
    420500   287.72698      284.07077      18549.675      19271.152     -731.55313    
    421000   287.43621      293.90311      18529.009      19259.876     -402.26555    
    421500   297.7417       288.74165      18520.087      19261.459     -588.41132    
    422000   293.3284       291.87906      18536.546      19274.347     -324.87357    
    422500   316.29804      297.83644      18557.244      19335.921     -414.89073    
    423000   305.14276      289.36736      18522.022      19275.272     -321.21425    
    423500   276.55268      289.96822      18530.819      19241.206     -753.86662    
    424000   301.53523      284.10317      18543.177      19285.678     -613.14432    
    424500   309.78776      289.59208      18556.398      19316.934     -671.56379    
    425000   296.76424      283.58863      18536.066      19270.8       -689.72881    
    425500   310.45871      298.18684      18550.191      19320.341     -627.8796     
    426000   285.9281       298.04006      18517.622      19250.334     -248.11216    
    426500   312.28186      299.52534      18572.4        19346.661     -421.26303    
    427000   310.02186      296.28579      18546.561      19314.146     -588.3541     
    427500   316.10196      295.54715      18505.617      19281.706     -495.93613    
    428000   290.30589      289.08072      18544.923      19275.33      -516.5802     
    428500   290.36968      276.2227       18565.247      19282.893     -1054.7491    
    429000   290.96478      286.94667      18545.382      19274.657     -634.51719    
    429500   322.81138      290.87994      18530.523      19312.145     -426.71108    
    430000   282.70402      289.11241      18587.088      19305.971     -655.13913    
    430500   281.32721      289.09417      18549.367      19266.139     -523.00288    
    431000   284.75628      302.71913      18523.547      19259.156     -93.798024    
    431500   306.60068      287.34379      18529.929      19283.371     -593.89186    
    432000   297.96747      284.70536      18581.336      19319.015     -785.44552    
    432500   291.35932      283.45318      18542.662      19269.044     -760.69892    
    433000   289.28389      287.39857      18547.387      19274.558     -608.81407    
    433500   290.69947      282.44638      18541.603      19265.974     -716.70465    
    434000   283.27923      295.68756      18538.057      19264.39      -288.23235    
    434500   307.93505      295.75669      18514.56       19278.444     -397.01702    
    435000   306.95806      293.97603      18558.528      19319.146     -435.55546    
    435500   298.73203      291.07168      18537.877      19283.085     -587.7342     
    436000   305.7257       286.54407      18533.99       19285.302     -541.02957    
    436500   287.46383      284.20549      18541.011      19262.222     -730.57907    
    437000   298.37669      286.79598      18539.447      19279.839     -622.90818    
    437500   299.35881      290.52721      18559.446      19305.063     -648.38633    
    438000   287.47258      290.92001      18517.75       19245.689     -422.52278    
    438500   291.79331      301.12378      18524.461      19269.173     -126.82824    
    439000   290.88793      292.76911      18563.272      19298.253     -537.72939    
    439500   313.66356      290.40637      18555.401      19322.642     -542.85548    
    440000   306.19648      286.61737      18536.116      19288.218     -459.41442    
    440500   304.0602       288.06036      18559.715      19310.012     -464.25433    
    441000   282.99144      276.9021       18556.014      19263.123     -1048.373     
    441500   299.54777      280.13104      18540.855      19276.363     -569.00218    
    442000   309.67162      286.43134      18537.965      19295.164     -564.52122    
    442500   268.26549      294.0406       18505.181      19207.042     -193.36335    
    443000   302.96166      298.20944      18522.378      19281.153     -430.41071    
    443500   301.74336      293.82048      18517.702      19270.237     -285.61188    
    444000   284.20226      296.46122      18524.024      19252.533     -348.19497    
    444500   301.52083      288.07176      18546.961      19293.409     -642.10806    
    445000   307.74664      273.97559      18554.987      19296.803     -932.80493    
    445500   305.15797      273.48737      18548.004      19285.397     -713.86023    
    446000   299.47055      286.04405      18535.539      19276.842     -516.1019     
    446500   299.09891      289.5099       18532.594      19276.798     -642.29932    
    447000   296.07424      301.00888      18543.656      19294.761     -222.13679    
    447500   290.17733      303.67982      18523.978      19268.789     -281.65441    
    448000   296.55474      299.97212      18534.909      19285.708     -402.40435    
    448500   303.51784      290.80936      18538.845      19291.067     -611.88237    
    449000   304.47366      285.21136      18556.213      19304.289     -580.16628    
    449500   300.72943      279.66063      18571.613      19308.446     -912.21451    
    450000   297.35741      278.96727      18546.482      19277.496     -761.30166    
    450500   295.87445      281.40092      18552.766      19283.96      -625.63356    
    451000   319.47828      284.84809      18514.651      19285.174     -411.50442    
    451500   283.47389      294.25018      18533.772      19258.963     -531.11043    
    452000   277.12646      302.25868      18536.204      19259.754     -118.6237     
    452500   297.83702      297.46403      18527.79       19278.03      -423.74219    
    453000   290.43121      290.42708      18543.148      19275.093     -797.31718    
    453500   278.53735      290.36716      18582.244      19296.048     -622.60008    
    454000   298.93222      285.29043      18540.182      19279.913     -597.3717     
    454500   287.62456      279.65943      18556.519      19273.429     -951.42889    
    455000   303.69422      290.92667      18541.7        19294.307     -637.54912    
    455500   287.70677      300.12787      18514.871      19252.375     -240.32318    
    456000   294.17656      296.01042      18537.403      19280.624     -480.11441    
    456500   299.48546      299.39587      18534.317      19288.994     -414.18353    
    457000   273.67839      296.05403      18537.129      19249.233     -538.31866    
    457500   298.71028      292.16906      18519.862      19266.135     -448.33763    
    458000   296.03986      286.00665      18554.758      19290.808     -800.29955    
    458500   316.34639      286.60994      18540.242      19307.766     -522.2132     
    459000   295.00816      289.08258      18555.519      19293.077     -558.96586    
    459500   293.73907      291.01566      18516.975      19254.537     -478.59571    
    460000   299.92777      286.02193      18577.993      19319.969     -505.22908    
    460500   320.18023      293.17529      18543.033      19322.95      -487.22118    
    461000   294.55719      294.20388      18543.991      19285.985     -402.2197     
    461500   308.19921      288.90567      18513.365      19270.799     -549.86063    
    462000   291.70655      293.68307      18544.862      19282.001     -656.26943    
    462500   293.30323      292.38166      18509.317      19247.582     -316.23632    
    463000   310.94484      291.28107      18558.245      19322.228     -619.04159    
    463500   287.04814      289.87528      18554.43       19280.68      -758.89474    
    464000   298.43212      303.89579      18548.941      19306.517     -332.81248    
    464500   281.93847      299.5715       18542.64       19270.818     -369.14092    
    465000   280.12587      297.8821       18545.036      19268.769     -629.24572    
    465500   297.49082      295.58378      18555.454      19303.287     -625.71071    
    466000   301.67848      298.09878      18568.066      19324.78      -587.32619    
    466500   279.64023      296.6843       18546.763      19268.56      -657.71886    
    467000   297.2566       301.33103      18545.973      19299.198     -620.89477    
    467500   308.18123      296.23181      18537.568      19302.301     -621.37777    
    468000   300.35372      300.23411      18522.627      19279.462     -357.57219    
    468500   296.76096      297.94826      18525.602      19274.69      -409.38101    
    469000   308.43348      290.6235       18522.729      19282.237     -589.49552    
    469500   295.77285      295.89196      18516.125      19261.654     -399.12824    
    470000   283.4843       292.72901      18509.692      19233.377     -598.62946    
    470500   303.18579      287.57975      18551.194      19299.681     -835.04559    
    471000   312.95883      285.03588      18548.354      19309.154     -894.25371    
    471500   293.98562      295.48932      18540.858      19283.268     -585.39285    
    472000   305.10966      301.53692      18548.247      19313.615     -419.54007    
    472500   297.11867      305.36519      18513.792      19270.841     -278.47135    
    473000   295.25913      301.30085      18540.494      19290.651     -467.46827    
    473500   291.00541      294.52398      18525.495      19262.409     -539.81521    
    474000   274.21547      290.45941      18562.926      19270.252     -785.13392    
    474500   294.74372      289.08528      18554.741      19291.9       -827.17407    
    475000   298.70447      296.3634       18548.881      19299.339     -634.46069    
    475500   286.76344      295.61488      18540.487      19272.043     -533.31722    
    476000   311.41045      291.09622      18538.709      19303.215     -598.78022    
    476500   317.26357      297.05472      18540.358      19319.721     -328.16507    
    477000   295.41413      292.87837      18568.385      19310.356     -509.75289    
    477500   321.06513      288.86502      18545.485      19322.438     -616.9039     
    478000   286.96988      288.33355      18530.592      19255.181     -555.17131    
    478500   312.56274      289.05668      18536.404      19300.622     -487.57436    
    479000   301.12178      281.78214      18560.027      19299.579     -861.9769     
    479500   301.07444      287.40654      18563.853      19308.957     -606.98318    
    480000   296.29676      292.24323      18521.692      19264.37      -627.94384    
    480500   312.65782      294.95207      18551.291      19321.55      -549.27187    
    481000   288.62175      298.15914      18546.622      19283.548     -459.34432    
    481500   321.49941      294.14819      18561.904      19344.8       -408.65041    
    482000   293.31929      285.59703      18514.047      19245.552     -457.62942    
    482500   290.38525      284.41555      18559.254      19285.117     -636.03446    
    483000   316.49417      284.11753      18545.63       19310.886     -673.65016    
    483500   296.36994      278.92464      18570.113      19299.584     -745.71256    
    484000   291.61814      286.14765      18546.343      19275.812     -623.61964    
    484500   298.33654      297.85901      18547.314      19298.708     -392.35262    
    485000   296.14905      292.14528      18547.086      19289.441     -262.31624    
    485500   321.98871      290.07664      18553.802      19333.37      -606.37491    
    486000   308.1056       293.62103      18566.823      19328.83      -414.75492    
    486500   289.68526      288.8181       18528.856      19258.058     -517.28384    
    487000   288.93055      281.17817      18567.514      19287.929     -464.96628    
    487500   303.564        281.4605       18538.541      19281.483     -737.1099     
    488000   314.33459      284.21884      18554.652      19316.727     -569.99525    
    488500   284.72415      288.55519      18543.186      19264.582     -617.60692    
    489000   303.13944      291.65686      18513.273      19265.767     -484.84521    
    489500   305.70203      292.97658      18537.813      19295.521     -344.64127    
    490000   322.01096      289.35001      18526.717      19305.593     -366.42833    
    490500   285.20317      284.44582      18539.114      19257.129     -536.35756    
    491000   298.57349      280.66128      18558.868      19293.425     -595.14534    
    491500   297.25495      279.07142      18534.736      19265.698     -673.8916     
    492000   308.57606      286.03202      18546.234      19301.367     -622.75635    
    492500   313.22683      284.81324      18550.113      19311.098     -424.37807    
    493000   291.90411      282.40011      18539.812      19265.969     -476.82098    
    493500   304.50715      284.99157      18539.364      19287.272     -586.93342    
    494000   308.1511       280.7417       18537.863      19287.06      -449.26802    
    494500   293.5006       281.76831      18551.815      19279.767     -663.91547    
    495000   303.94451      285.59841      18544.162      19291.821     -523.5218     
    495500   294.80365      284.7204       18534.116      19267.001     -581.49364    
    496000   297.94472      284.56087      18534.688      19272.188     -577.98641    
    496500   291.44692      288.25252      18557.547      19288.861     -595.59704    
    497000   315.43536      284.325        18565.838      19329.692     -656.37798    
    497500   289.87297      280.0044       18565.56       19286.233     -654.65305    
    498000   308.57571      279.78483      18530.311      19279.197     -521.6875     
    498500   313.36253      281.35468      18547.568      19305.301     -666.99933    
    499000   292.31427      286.51648      18561.586      19292.483     -567.65631    
    499500   300.24301      291.34451      18535.404      19283.182     -334.81061    
    500000   310.3832       287.04975      18532.49       19291.389     -428.27806    
Loop time of 400.066 on 4 procs for 500000 steps with 511 atoms

Performance: 5.399 ns/day, 4.445 hours/ns, 1249.793 timesteps/s, 638.644 katom-step/s
99.7% CPU use with 4 MPI tasks x no OpenMP threads

MPI task timing breakdown:
Section |  min time  |  avg time  |  max time  |%varavg| %total
---------------------------------------------------------------
Pair    | 251.43     | 269.6      | 295.38     | 109.5 | 67.39
Bond    | 40.846     | 43.886     | 46.317     |  29.7 | 10.97
Neigh   | 1.4785     | 1.4796     | 1.4803     |   0.1 |  0.37
Comm    | 42.316     | 70.531     | 91.734     | 232.7 | 17.63
Output  | 0.54201    | 0.59354    | 0.63467    |   4.6 |  0.15
Modify  | 12.17      | 12.187     | 12.206     |   0.4 |  3.05
Other   |            | 1.787      |            |       |  0.45

Nlocal:         127.75 ave         135 max         122 min
Histogram: 1 0 1 0 0 1 0 0 0 1
Nghost:        3532.25 ave        3553 max        3507 min
Histogram: 1 0 0 1 0 0 0 0 1 1
Neighs:              0 ave           0 max           0 min
Histogram: 4 0 0 0 0 0 0 0 0 0

Total # of neighbors = 0
Ave neighs/atom = 0
Ave special neighs/atom = 14.65362
Neighbor list builds = 1833
Dangerous builds = 0

# # 6. Production step
# variable tfac equal 3.0/3.0
# # variable xlo equal xlo+0.1
# # variable xhi equal xhi-0.1
# # variable ylo equal ylo+0.1
# # variable yhi equal yhi-0.1
# # variable zlo equal zlo+0.1
# # variable zhi equal zhi-0.1
# # region system block ${xlo} ${xhi} ${ylo} ${yhi} ${zlo} ${zhi}
# fix fgcmc H2 gcmc 100 100 0 2 65899 ${T} -0.5 0.1 #     tfac_insert ${tfac} group H2 #     pressure 113 #region system
# run 300000

# write_data     ensemble.data
# write_dump     all atom simulation_data/ensemble.lammpstrj

Total wall time: 0:06:40
