# --- log file ---

variable pre equal 112 # desired pressure (Atm)
variable tem equal 300 # desired temperature (K)

variable k1 equal 0.5 # spring constant
variable k2 equal 10 # spring constant

units real
atom_style molecular
boundary p p p
neighbor 1.0 bin
neigh_modify delay 3 one 6000
bond_style harmonic
angle_style harmonic
dihedral_style opls
improper_style harmonic
pair_style hybrid lj/cut 14 sg 15 cb 30 # Fluid-fluid interactions have a cutoff of 15 Å, fluid-solid interactions have a cutoff of 30 Å
# *--* C-C parameters *--*
bond_style harmonic
angle_style harmonic
dihedral_style opls
improper_style harmonic
# *--* C-C parameters *--*


# 2. Read the graphite platelet data file and define potentials parameters
read_data       ../geometry/carbonPlatelets/simulation_data/abpot_sys.data  extra/atom/types 1
Reading data file ...
  orthogonal box = (-30 -30 -30) to (30 30 30)
  1 by 2 by 2 MPI processor grid
  reading atoms ...
  480 atoms
  reading velocities ...
  480 velocities
  scanning bonds ...
  2 = max bonds/atom
  scanning angles ...
  3 = max angles/atom
  scanning dihedrals ...
  8 = max dihedrals/atom
  scanning impropers ...
  2 = max impropers/atom
  orthogonal box = (-30 -30 -30) to (30 30 30)
  1 by 2 by 2 MPI processor grid
  reading bonds ...
  676 bonds
  reading angles ...
  1268 angles
  reading dihedrals ...
  2394 dihedrals
  reading impropers ...
  396 impropers
Finding 1-2 1-3 1-4 neighbors ...
  special bond factors lj:    0        0        0       
  special bond factors coul:  0        0        0       
     3 = max # of 1-2 neighbors
     6 = max # of 1-3 neighbors
    18 = max # of 1-4 neighbors
    18 = max # of special neighbors
  special bonds CPU = 0.000 seconds
  read_data CPU = 0.020 seconds
include         PARM.lammps

#////////////////////////////////////////////////////////////////////////////////////////////////////////////////////////////////
#//     Filename: PARM.lammps
#//     File Type: LAMMPS input script
#//     Description: This script defines the parameters for the simulation of hydrogen absorption in graphite platelets.
#//     Author: Edoardo Cabiati
#//     Date: 2024-07-27
#////////////////////////////////////////////////////////////////////////////////////////////////////////////////////////////////

mass 2 2.016 # For now at least, in accordance with the paper by Wang and Johnson,
             # 1998, the hydrogen atoms are regarded as simple spherical atoms

# //////////////////////////////////////    C-C potentials    //////////////////////////////////////
pair_coeff 1 1 lj/cut 0.066 3.4
bond_coeff 1 469 1.4
angle_coeff 1 63 120
dihedral_coeff 1 0 7.25 0 0
improper_coeff 1 5 180
special_bonds lj 0.0 0.0 0.5
Finding 1-2 1-3 1-4 neighbors ...
  special bond factors lj:    0        0        0.5     
  special bond factors coul:  0        0        0       
     3 = max # of 1-2 neighbors
     6 = max # of 1-3 neighbors
    18 = max # of 1-4 neighbors
    18 = max # of special neighbors
  special bonds CPU = 0.000 seconds
# //////////////////////////////////////    C-C potentials    //////////////////////////////////////
# -------------------------------------------------------------------------------------------------
# //////////////////////////////////////    H-H potentials    //////////////////////////////////////
variable alpha equal 1.713          #|
variable sigma equal 1.567          #|
variable gamma equal 0.00993        #|
variable c6 equal 12.14             #|      The parameters are all in atomic units, the conversion to kcal/mol
variable c8 equal 215.2             #|      is performed in the pair_sg.cpp file
variable c9 equal 143.1             #|
variable c10 equal 4813.9           #|
variable rc equal 8.321             #|
pair_coeff 2 2 sg ${alpha} ${sigma} ${gamma} ${c6} ${c8} ${c9} ${c10} ${rc} # H-H potentials
pair_coeff 2 2 sg 1.713 ${sigma} ${gamma} ${c6} ${c8} ${c9} ${c10} ${rc} 
pair_coeff 2 2 sg 1.713 1.567 ${gamma} ${c6} ${c8} ${c9} ${c10} ${rc} 
pair_coeff 2 2 sg 1.713 1.567 0.00993 ${c6} ${c8} ${c9} ${c10} ${rc} 
pair_coeff 2 2 sg 1.713 1.567 0.00993 12.14 ${c8} ${c9} ${c10} ${rc} 
pair_coeff 2 2 sg 1.713 1.567 0.00993 12.14 215.2 ${c9} ${c10} ${rc} 
pair_coeff 2 2 sg 1.713 1.567 0.00993 12.14 215.2 143.1 ${c10} ${rc} 
pair_coeff 2 2 sg 1.713 1.567 0.00993 12.14 215.2 143.1 4813.9 ${rc} 
pair_coeff 2 2 sg 1.713 1.567 0.00993 12.14 215.2 143.1 4813.9 8.321 
#pair_coeff 2 2 sg 1.713 1.567 0.00993 12.14 215.2 143.1 4813.9 8.321 # H-H potentials
# //////////////////////////////////////    H-H potentials    //////////////////////////////////////
# -------------------------------------------------------------------------------------------------
# //////////////////////////////////////    C-H potentials    //////////////////////////////////////
variable sigma_CC equal 3.43 # Å
variable sigma_HH equal 3.075 # Å
variable sigma_CH_geo equal sqrt(${sigma_CC}*${sigma_HH}) # Å
variable sigma_CH_geo equal sqrt(3.43*${sigma_HH}) 
variable sigma_CH_geo equal sqrt(3.43*3.075) 
variable sigma_CH_arit equal 0.5*(${sigma_CC}+${sigma_HH}) # Å
variable sigma_CH_arit equal 0.5*(3.43+${sigma_HH}) 
variable sigma_CH_arit equal 0.5*(3.43+3.075) 

variable P_par equal 0.57 # Å^3
variable P_perp equal 1.995 # Å^3
variable P_h equal 0.81 # Å^3
variable E_h equal 2.337e5*(1/503.23) # K * 1/503.23 kcal/mol/K = kcal/mol
variable E_c equal 1.39254e5*(1/503.23) # K * 1/503.23 kcal/mol/K = kcal/mol

variable epsilon equal 4*v_E_h*v_E_c*v_P_h*(v_P_par+v_P_perp/2)/(v_sigma_CH_geo^6*(v_E_h+v_E_c)) # kcal/mol

pair_coeff 1 2 cb ${epsilon} ${sigma_CH_geo} ${P_par} ${P_perp} # C-H potential
pair_coeff 1 2 cb 0.750549668586509 ${sigma_CH_geo} ${P_par} ${P_perp} 
pair_coeff 1 2 cb 0.750549668586509 3.24765299870537 ${P_par} ${P_perp} 
pair_coeff 1 2 cb 0.750549668586509 3.24765299870537 0.57 ${P_perp} 
pair_coeff 1 2 cb 0.750549668586509 3.24765299870537 0.57 1.995 
#pair_coeff 1 2 lj/cut 0.3025 2.065
# //////////////////////////////////////    C-H potentials    //////////////////////////////////////

# 3. Add a single hydrogen atom to the system, close to the center of the first platelet
create_atoms    2 single 0 0 -2
Created 1 atoms
  using lattice units in orthogonal box = (-30 -30 -30) to (30 30 30)
  create_atoms CPU = 0.001 seconds

group           C type 1
480 atoms in group C
group           H2 type 2
1 atoms in group H2

# 4. Equilibration
timestep        0.05
fix             mytth1 C spring/self ${k2} # Apply a spring force to the carbon atoms
fix             mytth1 C spring/self 10 
velocity        all create ${tem} 48 rot yes mom yes dist gaussian # Initialize velocities
velocity        all create 300 48 rot yes mom yes dist gaussian 
fix             mynpt all npt temp ${tem} ${tem} 100 x ${pre} ${pre} 1000 y ${pre} ${pre} 1000 # Apply NPT ensemble to the system
fix             mynpt all npt temp 300 ${tem} 100 x ${pre} ${pre} 1000 y ${pre} ${pre} 1000 
fix             mynpt all npt temp 300 300 100 x ${pre} ${pre} 1000 y ${pre} ${pre} 1000 
fix             mynpt all npt temp 300 300 100 x 112 ${pre} 1000 y ${pre} ${pre} 1000 
fix             mynpt all npt temp 300 300 100 x 112 112 1000 y ${pre} ${pre} 1000 
fix             mynpt all npt temp 300 300 100 x 112 112 1000 y 112 ${pre} 1000 
fix             mynpt all npt temp 300 300 100 x 112 112 1000 y 112 112 1000 

thermo          1000
dump            dump all atom 10000 simulation_data/absorption_pot.lammpstrj

run             20000

CITE-CITE-CITE-CITE-CITE-CITE-CITE-CITE-CITE-CITE-CITE-CITE-CITE

Your simulation uses code contributions which should be cited:

- Type Label Framework: https://doi.org/10.1021/acs.jpcb.3c08419

@Article{Gissinger24,
 author = {Jacob R. Gissinger, Ilia Nikiforov, Yaser Afshar, Brendon Waters, Moon-ki Choi, Daniel S. Karls, Alexander Stukowski, Wonpil Im, Hendrik Heinz, Axel Kohlmeyer, and Ellad B. Tadmor},
 title = {Type Label Framework for Bonded Force Fields in LAMMPS},
 journal = {J. Phys. Chem. B},
 year =    2024,
 volume =  128,
 number =  13,
 pages =   {3282–-3297}
}

CITE-CITE-CITE-CITE-CITE-CITE-CITE-CITE-CITE-CITE-CITE-CITE-CITE

Generated 0 of 1 mixed pair_coeff terms from geometric mixing rule
Neighbor list info ...
  update: every = 1 steps, delay = 3 steps, check = yes
  max neighbors/atom: 6000, page size: 100000
  master list distance cutoff = 31
  ghost atom cutoff = 31
  binsize = 15.5, bins = 4 4 4
  4 neighbor lists, perpetual/occasional/extra = 4 0 0
  (1) pair lj/cut, perpetual, skip trim from (4)
      attributes: half, newton on, cut 15
      pair build: skip/trim
      stencil: none
      bin: none
  (2) pair sg, perpetual, skip trim from (4)
      attributes: half, newton on, cut 16
      pair build: skip/trim
      stencil: none
      bin: none
  (3) pair cb, perpetual, skip from (4)
      attributes: half, newton on
      pair build: skip
      stencil: none
      bin: none
  (4) neighbor class addition, perpetual
      attributes: half, newton on
      pair build: half/bin/newton
      stencil: half/bin/3d
      bin: standard
Per MPI rank memory allocation (min/avg/max) = 13.52 | 13.52 | 13.52 Mbytes
   Step          Temp          E_pair         E_mol          TotEng         Press          Volume    
         0   300            308.51847      19603.922      20341.677     -432.43112      216000       
      1000   530.43381      459.65169      18890.873      20109.463      725.21861      208274.27    
      2000   595.57688      351.65483      18909.209      20113.009     -955.70473      207733.27    
      3000   478.83784      365.53031      18825.371      19876.017     -464.55563      200391.24    
      4000   523.04317      414.43012      18699.518      19862.313      449.19084      191383.19    
      5000   420.75325      345.52063      18769.939      19717.469     -1012.4714      185542.51    
      6000   416.85346      393.2326       18628.94       19618.602      68.332757      175706.1     
      7000   417.4554       356.56113      18607.827      19561.678     -607.83024      169285.34    
      8000   346.7237       369.45784      18572.947      19438.494     -356.93797      161418.3     
      9000   334.54069      364.7263       18572.345      19415.729     -525.81912      155071.55    
     10000   290.55999      367.8371       18539.883      19323.45      -539.30745      148720.11    
     11000   291.13017      363.01224      18525.247      19304.805     -613.57389      142776.83    
     12000   303.74205      359.86382      18487.869      19282.324     -643.41625      137414.06    
     13000   272.9179       366.2879       18487.827      19244.602     -552.49858      131822.74    
     14000   283.39106      361.88915      18489.52       19256.882     -581.76125      126896.39    
     15000   269.29815      357.49361      18497.648      19240.45      -844.70939      122004.45    
     16000   294.93635      362.24987      18475.443      19259.684     -760.83487      117219.92    
     17000   286.4293       363.66169      18505.25       19278.732     -810.84414      112748.91    
     18000   296.8917       358.15738      18505.999      19288.946     -1001.0167      108387.35    
     19000   305.41642      363.46872      18504.373      19304.828     -784.46083      104104.02    
     20000   315.92109      359.32603      18518.613      19329.956     -871.73039      100253.63    
Loop time of 5.45169 on 4 procs for 20000 steps with 481 atoms

Performance: 15.848 ns/day, 1.514 hours/ns, 3668.588 timesteps/s, 1.765 Matom-step/s
99.1% CPU use with 4 MPI tasks x no OpenMP threads

MPI task timing breakdown:
Section |  min time  |  avg time  |  max time  |%varavg| %total
---------------------------------------------------------------
Pair    | 1.0542     | 1.4159     | 2.1136     |  34.9 | 25.97
Bond    | 1.7558     | 1.9405     | 2.1446     |  11.0 | 35.59
Neigh   | 0.031761   | 0.03223    | 0.032698   |   0.3 |  0.59
Comm    | 0.87947    | 1.7816     | 2.2287     |  39.7 | 32.68
Output  | 0.00064183 | 0.00071244 | 0.00089508 |   0.0 |  0.01
Modify  | 0.21826    | 0.21964    | 0.22122    |   0.3 |  4.03
Other   |            | 0.06114    |            |       |  1.12

Nlocal:         120.25 ave         129 max         111 min
Histogram: 1 1 0 0 0 0 0 0 1 1
Nghost:        4046.75 ave        4073 max        4023 min
Histogram: 2 0 0 0 0 0 0 0 1 1
Neighs:              0 ave           0 max           0 min
Histogram: 4 0 0 0 0 0 0 0 0 0

Total # of neighbors = 0
Ave neighs/atom = 0
Ave special neighs/atom = 15.567568
Neighbor list builds = 57
Dangerous builds = 0
unfix           mynpt
unfix           mytth1

# 5. Umbrella sampling
fix             mynvt all nvt temp ${tem} ${tem} 100
fix             mynvt all nvt temp 300 ${tem} 100
fix             mynvt all nvt temp 300 300 100
fix             mytth1 C spring/self ${k2}
fix             mytth1 C spring/self 10

variable        zave equal xcm(H2,z)
variable        cpt loop 101
label           loop
variable        zdes equal  -15+0.30*(${cpt}-1)
variable        zdes equal  -15+0.30*(1-1)
fix             mytth2 H2 spring tether ${k1} 5 5 ${zdes} 0
fix             mytth2 H2 spring tether 0.5 5 5 ${zdes} 0
fix             mytth2 H2 spring tether 0.5 5 5 -15 0
run             10000
Generated 0 of 1 mixed pair_coeff terms from geometric mixing rule
Per MPI rank memory allocation (min/avg/max) = 14.61 | 14.61 | 14.61 Mbytes
   Step          Temp          E_pair         E_mol          TotEng         Press     
     20000   315.92109      359.32603      18518.613      19329.956     -871.73039    
     21000   257.70897      309.74945      18620.621      19299.098     -3058.0165    
     22000   321.06358      409.52294      18466.808      19335.705      722.44313    
     23000   276.92126      461.33543      18453.199      19310.751      2411.9144    
     24000   320.54971      339.10673      18573.098      19370.844     -1862.7316    
     25000   274.95855      319.94005      18639.108      19352.456     -2777.0423    
     26000   306.64024      427.08813      18475.436      19341.262      1313.4554    
     27000   306.64499      439.74845      18466.275      19344.767      1567.7873    
     28000   333.16811      333.76917      18590.375      19400.837     -2113.8762    
     29000   317.27804      329.80164      18623.18       19406.939     -2177.5201    
     30000   286.42109      437.81738      18507.421      19355.047      1463.2567    
Loop time of 2.76143 on 4 procs for 10000 steps with 481 atoms

Performance: 15.644 ns/day, 1.534 hours/ns, 3621.318 timesteps/s, 1.742 Matom-step/s
97.3% CPU use with 4 MPI tasks x no OpenMP threads

MPI task timing breakdown:
Section |  min time  |  avg time  |  max time  |%varavg| %total
---------------------------------------------------------------
Pair    | 0.35448    | 0.64635    | 0.94865    |  26.6 | 23.41
Bond    | 0.80124    | 0.88743    | 0.9881     |   8.0 | 32.14
Neigh   | 0.06621    | 0.06622    | 0.066229   |   0.0 |  2.40
Comm    | 0.61745    | 1.0178     | 1.2643     |  24.5 | 36.86
Output  | 0.00032871 | 0.00036821 | 0.00046091 |   0.0 |  0.01
Modify  | 0.10017    | 0.10352    | 0.10709    |   1.0 |  3.75
Other   |            | 0.03973    |            |       |  1.44

Nlocal:         120.25 ave         128 max         112 min
Histogram: 2 0 0 0 0 0 0 0 0 2
Nghost:        4195.25 ave        4221 max        4170 min
Histogram: 1 1 0 0 0 0 0 0 1 1
Neighs:              0 ave           0 max           0 min
Histogram: 4 0 0 0 0 0 0 0 0 0

Total # of neighbors = 0
Ave neighs/atom = 0
Ave special neighs/atom = 15.567568
Neighbor list builds = 73
Dangerous builds = 0
fix             myat1 all ave/time 100 10 1000 v_zave v_zdes file simulation_data/abpot/${cpt}.dat
fix             myat1 all ave/time 100 10 1000 v_zave v_zdes file simulation_data/abpot/1.dat
run             50000
Generated 0 of 1 mixed pair_coeff terms from geometric mixing rule
Per MPI rank memory allocation (min/avg/max) = 14.61 | 14.61 | 14.61 Mbytes
   Step          Temp          E_pair         E_mol          TotEng         Press     
     30000   286.42109      437.81738      18507.421      19355.047      1463.2567    
     31000   315.25705      426.79214      18480.454      19358.312      1096.0539    
     32000   290.48377      326.50277      18621.621      19363.745     -2407.0632    
     33000   331.78083      346.41471      18555.298      19376.421     -1475.8094    
     34000   275.15598      443.88356      18477.082      19314.655      1797.1057    
     35000   332.64987      401.40138      18481.256      19358.609      450.40971    
     36000   289.43169      323.84941      18625.344      19363.309     -2501.4837    
     37000   331.50256      363.42322      18535.528      19373.261     -953.93518    
     38000   255.69985      446.64777      18492.239      19304.74       1774.3127    
     39000   306.42906      389.91905      18525.598      19353.952     -87.032361    
     40000   279.5253       328.09406      18635.094      19363.129     -2738.2774    
     41000   332.57116      380.98935      18520.177      19377.005     -133.84731    
     42000   269.47721      452.19503      18495.745      19333.505      2035.9776    
     43000   336.17896      363.51661      18566.392      19410.909     -918.16427    
     44000   306.70262      322.46987      18653.166      19414.463     -2448.1382    
     45000   320.9819       404.26407      18537.44       19400.961      480.4626     
     46000   287.00243      432.37327      18502.98       19345.993      1421.9797    
     47000   326.05424      356.28727      18559.942      19382.744     -1176.6294    
     48000   292.60336      328.1827       18619.486      19366.322     -2278.7145    
     49000   307.95285      403.61714      18498.662      19342.895      609.17807    
     50000   287.75502      422.70006      18481.345      19315.762      1130.7813    
     51000   296.6992       345.84997      18584.985      19355.349     -1504.505     
     52000   294.72746      334.4815       18611.754      19367.928     -1940.6102    
     53000   292.32257      416.08463      18516.834      19351.17       819.80511    
     54000   286.11019      417.33592      18526.706      19353.405      809.38348    
     55000   311.46118      340.07871      18605.356      19391.07      -1974.0131    
     56000   304.89526      346.15626      18613.193      19395.59      -1355.3751    
     57000   314.0641       420.87783      18510.108      19380.345      953.4437     
     58000   291.9144       401.32946      18542.691      19361.688      179.90441    
     59000   311.04079      340.95756      18596.502      19382.493     -1814.355     
     60000   287.408        351.62519      18588.174      19351.019     -1342.6177    
     61000   303.70154      417.96342      18467.445      19319.941      1101.9319    
     62000   275.58118      389.82488      18527.71       19311.833      42.360046    
     63000   303.99521      335.632        18571.943      19342.528     -1790.7423    
     64000   292.24742      371.08597      18556.488      19345.718     -561.00865    
     65000   310.74076      418.17156      18483.181      19345.957      943.41162    
     66000   305.33724      381.6787       18535.963      19354.515     -206.51096    
     67000   316.58799      350.2637       18586.174      19389.408     -1376.8077    
     68000   298.20827      377.15981      18578.366      19382.199     -503.82056    
     69000   301.79181      414.21411      18519.734      19365.748      851.34481    
     70000   286.05742      373.37224      18571.033      19353.693     -731.81424    
     71000   293.20815      354.52144      18559.993      19334.034     -1241.0915    
     72000   290.25789      385.14339      18511.897      19312.338     -135.84456    
     73000   301.12132      405.10319      18468.651      19304.596      433.15791    
     74000   294.66722      375.45823      18532.981      19330.045     -699.17537    
     75000   297.72361      360.83321      18565.653      19352.466     -993.5279     
     76000   316.56437      385.65072      18524.742      19363.329     -163.34064    
     77000   294.38004      399.54264      18536.627      19357.365      139.75103    
     78000   317.79401      371.49592      18546.788      19372.98      -792.90423    
     79000   285.7834       364.35436      18595.627      19368.877     -1022.4296    
     80000   308.33366      387.59033      18533.811      19362.562     -57.343672    
Loop time of 15.0634 on 4 procs for 50000 steps with 481 atoms

Performance: 14.339 ns/day, 1.674 hours/ns, 3319.305 timesteps/s, 1.597 Matom-step/s
94.2% CPU use with 4 MPI tasks x no OpenMP threads

MPI task timing breakdown:
Section |  min time  |  avg time  |  max time  |%varavg| %total
---------------------------------------------------------------
Pair    | 1.8731     | 3.3579     | 4.6685     |  54.8 | 22.29
Bond    | 4.2044     | 4.6331     | 5.1198     |  17.6 | 30.76
Neigh   | 0.27551    | 0.27638    | 0.27727    |   0.1 |  1.83
Comm    | 4.0111     | 5.8546     | 7.1388     |  47.7 | 38.87
Output  | 0.0041619  | 0.0062169  | 0.0070923  |   1.5 |  0.04
Modify  | 0.64148    | 0.68319    | 0.72797    |   4.9 |  4.54
Other   |            | 0.252      |            |       |  1.67

Nlocal:         120.25 ave         125 max         115 min
Histogram: 1 0 1 0 0 0 0 0 0 2
Nghost:        4153.25 ave        4174 max        4134 min
Histogram: 2 0 0 0 0 0 0 0 0 2
Neighs:              0 ave           0 max           0 min
Histogram: 4 0 0 0 0 0 0 0 0 0

Total # of neighbors = 0
Ave neighs/atom = 0
Ave special neighs/atom = 15.567568
Neighbor list builds = 263
Dangerous builds = 0
unfix           myat1
next            cpt
jump            SELF loop
variable        zdes equal  -15+0.30*(${cpt}-1)
variable        zdes equal  -15+0.30*(2-1)
fix             mytth2 H2 spring tether ${k1} 5 5 ${zdes} 0
fix             mytth2 H2 spring tether 0.5 5 5 ${zdes} 0
fix             mytth2 H2 spring tether 0.5 5 5 -14.7 0
run             10000
Generated 0 of 1 mixed pair_coeff terms from geometric mixing rule
Per MPI rank memory allocation (min/avg/max) = 14.61 | 14.61 | 14.61 Mbytes
   Step          Temp          E_pair         E_mol          TotEng         Press     
     80000   308.33366      387.59033      18533.811      19362.562     -57.343672    
     81000   283.0977       395.06477      18528.606      19328.724      21.726       
     82000   301.02759      372.18352      18538.933      19341.823     -691.47344    
     83000   277.47134      363.71744      18556.987      19317.708     -846.96011    
     84000   296.00815      386.38569      18499.471      19309.382     -155.68116    
     85000   277.55026      388.28781      18516.337      19301.741     -135.53511    
     86000   294.90702      373.41932      18535.46       19330.829     -614.14323    
     87000   275.1929       363.68348      18586.187      19343.614     -1114.7098    
     88000   307.25201      387.04606      18529.117      19355.776     -82.636523    
     89000   293.76024      389.18006      18542.44       19351.929     -66.617658    
     90000   301.54945      366.33053      18567.299      19365.083     -803.50866    
Loop time of 2.83881 on 4 procs for 10000 steps with 481 atoms

Performance: 15.218 ns/day, 1.577 hours/ns, 3522.608 timesteps/s, 1.694 Matom-step/s
95.9% CPU use with 4 MPI tasks x no OpenMP threads

MPI task timing breakdown:
Section |  min time  |  avg time  |  max time  |%varavg| %total
---------------------------------------------------------------
Pair    | 0.36807    | 0.65094    | 0.89312    |  23.4 | 22.93
Bond    | 0.81393    | 0.90722    | 1.0079     |   8.6 | 31.96
Neigh   | 0.047925   | 0.047959   | 0.047996   |   0.0 |  1.69
Comm    | 0.73222    | 1.0748     | 1.2979     |  20.4 | 37.86
Output  | 0.00032379 | 0.00036256 | 0.00046192 |   0.0 |  0.01
Modify  | 0.11125    | 0.11199    | 0.11275    |   0.2 |  3.95
Other   |            | 0.0455     |            |       |  1.60

Nlocal:         120.25 ave         129 max         111 min
Histogram: 1 1 0 0 0 0 0 0 0 2
Nghost:         4173.5 ave        4205 max        4142 min
Histogram: 1 0 1 0 0 0 0 1 0 1
Neighs:              0 ave           0 max           0 min
Histogram: 4 0 0 0 0 0 0 0 0 0

Total # of neighbors = 0
Ave neighs/atom = 0
Ave special neighs/atom = 15.567568
Neighbor list builds = 49
Dangerous builds = 0
fix             myat1 all ave/time 100 10 1000 v_zave v_zdes file simulation_data/abpot/${cpt}.dat
fix             myat1 all ave/time 100 10 1000 v_zave v_zdes file simulation_data/abpot/2.dat
run             50000
Generated 0 of 1 mixed pair_coeff terms from geometric mixing rule
Per MPI rank memory allocation (min/avg/max) = 14.61 | 14.61 | 14.61 Mbytes
   Step          Temp          E_pair         E_mol          TotEng         Press     
     90000   301.54945      366.33053      18567.299      19365.083     -803.50866    
     91000   299.93936      364.68996      18571.762      19365.602     -914.4669     
     92000   324.88779      389.51315      18513.12       19367.479      109.85296    
     93000   310.34603      385.6093       18551.5        19381.149     -104.10154    
     94000   314.18878      369.79435      18590.087      19409.419     -648.95728    
     95000   318.49843      367.24973      18590.423      19413.377     -741.14424    
     96000   333.94447      391.11186      18532.29       19401.205      44.874705    
     97000   315.79984      386.09164      18543.428      19381.362     -149.12873    
     98000   310.80522      370.30057      18557.661      19372.658     -415.24408    
     99000   294.60676      368.68482      18569.853      19360.058     -593.11055    
    100000   299.77049      384.23475      18535.409      19348.552     -37.795844    
    101000   299.85486      390.73252      18519.265      19339.026      17.172789    
    102000   291.28367      367.52349      18560.071      19344.359     -906.2009     
    103000   278.14256      372.69446      18578.543      19349.2       -778.32165    
    104000   309.31149      384.23838      18525.709      19352.507     -7.86017      
    105000   318.91724      385.7004       18536.495      19378.499     -65.167335    
    106000   314.66435      372.26098      18570.374      19392.853     -629.77009    
    107000   321.71708      366.97752      18571.085      19398.372     -728.11105    
    108000   310.33442      384.55298      18532.568      19361.144     -269.83444    
    109000   296.52818      391.4218       18521.262      19336.953      57.202731    
    110000   292.20877      363.93099      18552.617      19334.637     -821.84463    
    111000   309.48753      370.33621      18526.51       19339.657     -560.96013    
    112000   299.0275       391.97566      18503.898      19323.718      81.239082    
    113000   299.55455      384.24021      18525.171      19338.011     -260.25732    
    114000   305.9386       374.8298       18541.082      19353.646     -319.81951    
    115000   302.55669      374.15514      18561.627      19368.677     -610.74986    
    116000   289.58336      395.71457      18559.644      19369.691      86.124554    
    117000   321.1722       393.79953      18525.997      19379.326     -28.499611    
    118000   318.08912      362.94393      18563.302      19381.364     -904.83165    
    119000   311.95657      378.32272      18548.631      19373.298     -389.07508    
    120000   288.6552       400.25531      18519.817      19333.077      305.1991     
    121000   288.41346      374.84823      18533.813      19321.32      -422.24154    
    122000   278.83079      364.49265      18556.104      19319.544     -945.96908    
    123000   280.66874      383.09741      18533.854      19318.529     -294.47468    
    124000   288.70078      395.79783      18525.907      19334.774      222.07606    
    125000   298.6624       377.79592      18553.036      19358.155     -550.38376    
    126000   314.09263      363.72797      18553.296      19366.425     -971.8454     
    127000   308.46455      386.10837      18532.285      19359.741     -284.45486    
    128000   307.75589      405.10797      18515.021      19360.462      347.11923    
    129000   303.19212      370.38714      18556.247      19360.438     -777.69472    
    130000   304.81641      359.62936      18561.82       19357.577     -1091.81      
    131000   286.72416      391.28838      18525.581      19327.111     -66.133041    
    132000   289.1328       401.87149      18494.708      19310.267      197.20667    
    133000   281.55381      366.9533       18543.276      19313.074     -871.35942    
    134000   292.31396      364.00587      18535.61       19317.855     -948.68387    
    135000   295.65662      391.69453      18503.552      19318.268     -110.11606    
    136000   292.51672      394.55182      18524.519      19337.601      110.73815    
    137000   298.33282      365.90582      18562.514      19355.271     -911.51234    
    138000   303.14455      364.90847      18562.387      19361.032     -865.18781    
    139000   299.10406      395.30271      18523.646      19346.903      146.05639    
    140000   299.39919      396.79359      18518.541      19343.712      92.132556    
Loop time of 14.1209 on 4 procs for 50000 steps with 481 atoms

Performance: 15.297 ns/day, 1.569 hours/ns, 3540.860 timesteps/s, 1.703 Matom-step/s
96.0% CPU use with 4 MPI tasks x no OpenMP threads

MPI task timing breakdown:
Section |  min time  |  avg time  |  max time  |%varavg| %total
---------------------------------------------------------------
Pair    | 1.8206     | 3.2771     | 4.556      |  54.2 | 23.21
Bond    | 4.1001     | 4.5501     | 5.043      |  17.6 | 32.22
Neigh   | 0.19891    | 0.19924    | 0.19951    |   0.1 |  1.41
Comm    | 3.5511     | 5.3077     | 6.5298     |  48.1 | 37.59
Output  | 0.0023312  | 0.0032589  | 0.0036332  |   0.9 |  0.02
Modify  | 0.53746    | 0.55537    | 0.57153    |   2.0 |  3.93
Other   |            | 0.2281     |            |       |  1.62

Nlocal:         120.25 ave         126 max         114 min
Histogram: 1 0 1 0 0 0 0 0 1 1
Nghost:        4163.75 ave        4183 max        4142 min
Histogram: 1 1 0 0 0 0 0 0 0 2
Neighs:              0 ave           0 max           0 min
Histogram: 4 0 0 0 0 0 0 0 0 0

Total # of neighbors = 0
Ave neighs/atom = 0
Ave special neighs/atom = 15.567568
Neighbor list builds = 205
Dangerous builds = 0
unfix           myat1
next            cpt
jump            SELF loop
variable        zdes equal  -15+0.30*(${cpt}-1)
variable        zdes equal  -15+0.30*(3-1)
fix             mytth2 H2 spring tether ${k1} 5 5 ${zdes} 0
fix             mytth2 H2 spring tether 0.5 5 5 ${zdes} 0
fix             mytth2 H2 spring tether 0.5 5 5 -14.4 0
run             10000
Generated 0 of 1 mixed pair_coeff terms from geometric mixing rule
Per MPI rank memory allocation (min/avg/max) = 14.61 | 14.61 | 14.61 Mbytes
   Step          Temp          E_pair         E_mol          TotEng         Press     
    140000   299.39919      396.79359      18518.541      19343.712      92.132556    
    141000   293.85193      363.11849      18565.334      19348.893     -933.60111    
    142000   304.4519       365.92283      18546.009      19347.538     -879.96317    
    143000   299.15918      395.97181      18511.677      19335.682      343.52837    
    144000   298.55927      388.66127      18500.411      19316.248     -69.151047    
    145000   286.80971      357.13905      18539.647      19307.15      -1101.8812    
    146000   288.77537      370.88715      18506.67       19290.734     -495.29809    
    147000   289.71975      392.02428      18473.042      19279.594      243.83875    
    148000   293.2163       383.55598      18498.685      19301.771     -71.371753    
    149000   296.8018       363.01838      18542.587      19330.266     -751.12646    
    150000   285.62015      369.3057       18552.055      19330.023     -704.13706    
Loop time of 2.63522 on 4 procs for 10000 steps with 481 atoms

Performance: 16.393 ns/day, 1.464 hours/ns, 3794.755 timesteps/s, 1.825 Matom-step/s
98.5% CPU use with 4 MPI tasks x no OpenMP threads

MPI task timing breakdown:
Section |  min time  |  avg time  |  max time  |%varavg| %total
---------------------------------------------------------------
Pair    | 0.36067    | 0.64234    | 0.87963    |  23.2 | 24.38
Bond    | 0.80589    | 0.89644    | 0.99614    |   8.2 | 34.02
Neigh   | 0.034451   | 0.034497   | 0.034546   |   0.0 |  1.31
Comm    | 0.59842    | 0.9359     | 1.1694     |  21.8 | 35.51
Output  | 0.00052246 | 0.00056852 | 0.00067487 |   0.0 |  0.02
Modify  | 0.084268   | 0.085521   | 0.086713   |   0.3 |  3.25
Other   |            | 0.03995    |            |       |  1.52

Nlocal:         120.25 ave         129 max         111 min
Histogram: 1 1 0 0 0 0 0 0 1 1
Nghost:        4177.25 ave        4201 max        4151 min
Histogram: 1 1 0 0 0 0 0 0 0 2
Neighs:              0 ave           0 max           0 min
Histogram: 4 0 0 0 0 0 0 0 0 0

Total # of neighbors = 0
Ave neighs/atom = 0
Ave special neighs/atom = 15.567568
Neighbor list builds = 37
Dangerous builds = 0
fix             myat1 all ave/time 100 10 1000 v_zave v_zdes file simulation_data/abpot/${cpt}.dat
fix             myat1 all ave/time 100 10 1000 v_zave v_zdes file simulation_data/abpot/3.dat
run             50000
Generated 0 of 1 mixed pair_coeff terms from geometric mixing rule
Per MPI rank memory allocation (min/avg/max) = 14.61 | 14.61 | 14.61 Mbytes
   Step          Temp          E_pair         E_mol          TotEng         Press     
    150000   285.62015      369.3057       18552.055      19330.023     -704.13706    
    151000   293.44946      399.13241      18503.393      19322.389      445.43563    
    152000   294.87086      370.91574      18550.629      19343.443     -617.58163    
    153000   298.54278      362.2404       18560.703      19350.095     -881.59928    
    154000   305.52717      381.18555      18537.315      19355.645     -177.42503    
    155000   300.91137      391.0456       18523.892      19345.478      60.89691     
    156000   298.04298      372.25276      18548.017      19346.706     -566.04315    
    157000   304.45024      363.71643      18542.842      19342.163     -875.80977    
    158000   279.12655      382.15242      18535.089      19316.612     -182.17197    
    159000   283.3836       388.5211       18510.926      19304.909      214.26678    
    160000   278.66932      363.09746      18540.225      19302.039     -866.77085    
    161000   296.82616      364.75961      18518.523      19307.978     -789.70951    
    162000   287.2179       390.42401      18515.438      19316.81       138.18859    
    163000   304.81768      386.02959      18520.886      19343.045      0.47601256   
    164000   311.92831      367.68719      18555.235      19369.225     -817.17353    
    165000   306.54919      369.55637      18553.358      19361.522     -833.1064     
    166000   301.61237      400.41328      18521.639      19353.596      352.20248    
    167000   311.18491      381.55901      18527.54       19354.339     -193.91615    
    168000   298.34812      363.16624      18557.586      19347.625     -844.59011    
    169000   277.83363      371.72699      18560.344      19329.592     -453.90132    
    170000   291.04797      395.77845      18497.239      19309.446      273.30594    
    171000   291.84503      383.25795      18521.944      19322.77      -266.76835    
    172000   298.90776      357.4486       18547.813      19332.936     -1056.8577    
    173000   313.83985      376.77973      18529.957      19355.776     -408.75291    
    174000   304.76779      398.12038      18530.573      19364.752      267.74419    
    175000   316.89971      379.50378      18548.57       19381.491     -223.60485    
    176000   297.21037      357.63314      18604.306      19387.185     -1198.6418    
    177000   321.57031      380.88038      18535.658      19376.637     -195.0716     
    178000   295.0507       396.15891      18537.822      19356.136      183.55824    
    179000   303.87592      377.28813      18541.176      19353.247     -548.07242    
    180000   294.70552      359.33148      18562.188      19343.18      -962.40539    
    181000   309.47509      378.91434      18516.468      19338.176     -214.79771    
    182000   296.00732      389.79115      18511.575      19324.89       120.69473    
    183000   297.50599      364.09689      18555.365      19345.13      -724.44529    
    184000   304.99584      361.38122      18560.56       19358.326     -783.1463     
    185000   316.77972      384.06344      18535.908      19373.217     -311.60658    
    186000   323.41425      391.02415      18537.073      19390.835      84.937212    
    187000   318.85154      364.08188      18587.119      19407.411     -908.55785    
    188000   300.25761      365.4288       18597.508      19392.542     -806.35156    
    189000   318.36963      389.46012      18526.597      19371.577      84.198899    
    190000   303.3238       384.55867      18543.789      19362.34      -163.91396    
    191000   312.65078      364.67041      18545.611      19357.619     -962.47893    
    192000   310.39447      366.44812      18537.487      19348.044     -712.78551    
    193000   293.24739      392.58144      18519.713      19331.869      74.89871     
    194000   295.67532      384.78117      18519.337      19327.167     -33.752031    
    195000   308.21311      365.63473      18532.193      19338.815     -731.9871     
    196000   291.12092      372.98636      18548.24       19337.759     -550.01998    
    197000   301.31702      389.81022      18526.999      19347.93       91.07657     
    198000   294.20461      383.59908      18562.501      19367.045     -130.36251    
    199000   320.25228      363.41582      18569.067      19390.696     -804.78555    
    200000   310.60384      375.65676      18567.47       19387.535     -436.71026    
Loop time of 13.253 on 4 procs for 50000 steps with 481 atoms

Performance: 16.298 ns/day, 1.473 hours/ns, 3772.721 timesteps/s, 1.815 Matom-step/s
97.8% CPU use with 4 MPI tasks x no OpenMP threads

MPI task timing breakdown:
Section |  min time  |  avg time  |  max time  |%varavg| %total
---------------------------------------------------------------
Pair    | 1.7766     | 3.1775     | 4.3866     |  52.5 | 23.98
Bond    | 4.0326     | 4.4757     | 4.972      |  17.9 | 33.77
Neigh   | 0.13039    | 0.13057    | 0.13074    |   0.0 |  0.99
Comm    | 3.1083     | 4.8147     | 5.9901     |  48.7 | 36.33
Output  | 0.0032813  | 0.0036366  | 0.003823   |   0.3 |  0.03
Modify  | 0.44359    | 0.44527    | 0.44836    |   0.3 |  3.36
Other   |            | 0.2056     |            |       |  1.55

Nlocal:         120.25 ave         125 max         116 min
Histogram: 2 0 0 0 0 0 0 0 1 1
Nghost:         4143.5 ave        4166 max        4119 min
Histogram: 1 0 1 0 0 0 0 0 1 1
Neighs:              0 ave           0 max           0 min
Histogram: 4 0 0 0 0 0 0 0 0 0

Total # of neighbors = 0
Ave neighs/atom = 0
Ave special neighs/atom = 15.567568
Neighbor list builds = 141
Dangerous builds = 0
unfix           myat1
next            cpt
jump            SELF loop
variable        zdes equal  -15+0.30*(${cpt}-1)
variable        zdes equal  -15+0.30*(4-1)
fix             mytth2 H2 spring tether ${k1} 5 5 ${zdes} 0
fix             mytth2 H2 spring tether 0.5 5 5 ${zdes} 0
fix             mytth2 H2 spring tether 0.5 5 5 -14.1 0
run             10000
Generated 0 of 1 mixed pair_coeff terms from geometric mixing rule
Per MPI rank memory allocation (min/avg/max) = 14.61 | 14.61 | 14.61 Mbytes
   Step          Temp          E_pair         E_mol          TotEng         Press     
    200000   310.60384      375.65676      18567.47       19387.535     -436.71026    
    201000   319.45431      393.51455      18518.764      19369.35       212.56133    
    202000   303.66411      376.99132      18543.658      19355.129     -428.68622    
    203000   310.02306      367.45086      18533.919      19344.948     -614.45261    
    204000   308.65777      376.72108      18520.021      19338.366     -380.04174    
    205000   296.90183      387.2675       18512.261      19324.333     -98.769425    
    206000   299.06658      378.69581      18529.882      19336.479     -625.26709    
    207000   289.90765      368.58495      18559.737      19343.119     -592.01844    
    208000   301.54714      379.1533       18525.623      19336.227     -232.22946    
    209000   298.76286      384.94953      18529.038      19341.454     -82.940063    
    210000   305.34348      379.17881      18549.656      19365.717     -403.35723    
Loop time of 2.47967 on 4 procs for 10000 steps with 481 atoms

Performance: 17.422 ns/day, 1.378 hours/ns, 4032.794 timesteps/s, 1.940 Matom-step/s
99.4% CPU use with 4 MPI tasks x no OpenMP threads

MPI task timing breakdown:
Section |  min time  |  avg time  |  max time  |%varavg| %total
---------------------------------------------------------------
Pair    | 0.34948    | 0.61697    | 0.83696    |  22.3 | 24.88
Bond    | 0.79381    | 0.87857    | 0.97349    |   8.1 | 35.43
Neigh   | 0.015406   | 0.015428   | 0.015448   |   0.0 |  0.62
Comm    | 0.55415    | 0.86581    | 1.0767     |  20.8 | 34.92
Output  | 0.00031408 | 0.00034004 | 0.00040904 |   0.0 |  0.01
Modify  | 0.063556   | 0.066835   | 0.070111   |   1.2 |  2.70
Other   |            | 0.03571    |            |       |  1.44

Nlocal:         120.25 ave         128 max         113 min
Histogram: 2 0 0 0 0 0 0 0 0 2
Nghost:        4159.25 ave        4182 max        4137 min
Histogram: 2 0 0 0 0 0 0 0 0 2
Neighs:              0 ave           0 max           0 min
Histogram: 4 0 0 0 0 0 0 0 0 0

Total # of neighbors = 0
Ave neighs/atom = 0
Ave special neighs/atom = 15.567568
Neighbor list builds = 17
Dangerous builds = 0
fix             myat1 all ave/time 100 10 1000 v_zave v_zdes file simulation_data/abpot/${cpt}.dat
fix             myat1 all ave/time 100 10 1000 v_zave v_zdes file simulation_data/abpot/4.dat
run             50000
Generated 0 of 1 mixed pair_coeff terms from geometric mixing rule
Per MPI rank memory allocation (min/avg/max) = 14.61 | 14.61 | 14.61 Mbytes
   Step          Temp          E_pair         E_mol          TotEng         Press     
    210000   305.34348      379.17881      18549.656      19365.717     -403.35723    
    211000   328.69954      366.62487      18548.146      19385.071     -733.15141    
    212000   314.37683      386.48983      18560.492      19396.789      105.926      
    213000   314.70089      379.97794      18561.072      19391.32      -318.76684    
    214000   313.70931      370.04018      18562.271      19381.163     -551.0759     
    215000   312.74103      376.32003      18535.562      19359.349     -471.03724    
    216000   312.44355      375.29185      18514.515      19336.848     -333.80859    
    217000   292.71098      379.04068      18532.496      19330.344     -191.65745    
    218000   302.13061      369.56237      18540.104      19341.951     -605.15497    
    219000   282.7544       372.85099      18556.423      19333.836     -623.58994    
    220000   301.56835      380.86595      18529.94       19342.286     -117.19118    
    221000   308.06123      370.40488      18536.705      19347.881     -734.0879     
    222000   293.80883      373.83608      18561.096      19355.31      -578.78208    
    223000   312.31599      378.44622      18543.895      19369.2       -335.22249    
    224000   315.67169      372.5697       18548.941      19373.17      -576.54621    
    225000   312.29906      381.05752      18547.66       19375.552     -171.08743    
    226000   303.9528       368.47274      18566.07       19369.436     -758.87428    
    227000   298.90154      381.412        18536.094      19345.171     -232.13574    
    228000   283.65905      381.3255       18529.71       19316.892     -334.32968    
    229000   285.11569      370.57057      18541.495      19320.006     -610.36894    
    230000   308.74993      372.84898      18518.739      19333.344     -377.29355    
    231000   288.71898      374.73811      18540.275      19328.109     -395.38995    
    232000   303.41157      375.40603      18535.995      19345.519     -461.65364    
    233000   297.73278      374.34503      18555.602      19355.94      -425.30133    
    234000   305.17514      367.6552       18564.728      19369.024     -625.95182    
    235000   303.27592      373.27397      18557.248      19364.446     -522.87763    
    236000   301.56745      385.96909      18544.678      19362.127     -18.460932    
    237000   305.04623      366.7482       18563.248      19366.453     -687.77462    
    238000   311.86762      373.68577      18540.965      19360.868     -487.13776    
    239000   295.46106      375.49757      18551.185      19349.425     -301.81331    
    240000   293.04296      382.10647      18534.901      19336.29      -331.43439    
    241000   302.53744      374.34843      18528.766      19335.982     -476.12611    
    242000   293.65612      370.99336      18535.124      19326.278     -555.17183    
    243000   285.52709      376.76607      18532.716      19318.011     -336.35416    
    244000   280.35194      383.90313      18513.113      19298.141     -228.17708    
    245000   276.01941      370.19945      18525.45       19290.575     -521.3009     
    246000   291.828        365.80856      18515.063      19298.416     -659.25809    
    247000   288.80085      376.125        18523.148      19312.486     -375.40278    
    248000   279.0862       372.68059      18565.189      19337.183     -525.22538    
    249000   284.62595      377.74944      18563.445      19348.434     -383.15179    
    250000   305.61037      366.6882       18542.332      19346.284     -677.3881     
    251000   300.29534      377.97172      18542.743      19350.374     -249.42639    
    252000   294.52265      380.67086      18550.291      19352.362     -56.148474    
    253000   296.36485      370.50028      18549.53       19344.066     -821.50451    
    254000   299.8851       376.05755      18529.49       19334.62      -242.65913    
    255000   284.14615      373.32412      18536.596      19316.473     -397.96659    
    256000   304.4417       373.7697       18500.277      19309.638     -339.03728    
    257000   275.78827      377.52026      18530.556      19302.671     -340.18146    
    258000   280.44474      372.07994      18533.699      19307.036     -456.24685    
    259000   305.09316      376.19293      18503.044      19315.761     -354.58458    
    260000   299.40286      376.53031      18541.655      19346.568     -337.66301    
Loop time of 12.4992 on 4 procs for 50000 steps with 481 atoms

Performance: 17.281 ns/day, 1.389 hours/ns, 4000.258 timesteps/s, 1.924 Matom-step/s
99.4% CPU use with 4 MPI tasks x no OpenMP threads

MPI task timing breakdown:
Section |  min time  |  avg time  |  max time  |%varavg| %total
---------------------------------------------------------------
Pair    | 1.7193     | 3.0808     | 4.2364     |  51.4 | 24.65
Bond    | 3.941      | 4.3934     | 4.9087     |  18.3 | 35.15
Neigh   | 0.068402   | 0.068411   | 0.068422   |   0.0 |  0.55
Comm    | 2.7707     | 4.4309     | 5.5712     |  49.4 | 35.45
Output  | 0.0025452  | 0.0025754  | 0.0026095  |   0.0 |  0.02
Modify  | 0.33378    | 0.34561    | 0.35648    |   1.6 |  2.77
Other   |            | 0.1776     |            |       |  1.42

Nlocal:         120.25 ave         130 max         110 min
Histogram: 1 0 1 0 0 0 0 0 1 1
Nghost:        4180.25 ave        4207 max        4157 min
Histogram: 2 0 0 0 0 0 0 0 1 1
Neighs:              0 ave           0 max           0 min
Histogram: 4 0 0 0 0 0 0 0 0 0

Total # of neighbors = 0
Ave neighs/atom = 0
Ave special neighs/atom = 15.567568
Neighbor list builds = 76
Dangerous builds = 0
unfix           myat1
next            cpt
jump            SELF loop
variable        zdes equal  -15+0.30*(${cpt}-1)
variable        zdes equal  -15+0.30*(5-1)
fix             mytth2 H2 spring tether ${k1} 5 5 ${zdes} 0
fix             mytth2 H2 spring tether 0.5 5 5 ${zdes} 0
fix             mytth2 H2 spring tether 0.5 5 5 -13.8 0
run             10000
Generated 0 of 1 mixed pair_coeff terms from geometric mixing rule
Per MPI rank memory allocation (min/avg/max) = 14.61 | 14.61 | 14.61 Mbytes
   Step          Temp          E_pair         E_mol          TotEng         Press     
    260000   299.40286      376.53031      18541.655      19346.568     -337.66301    
    261000   312.3875       372.69376      18539.99       19359.645     -432.72424    
    262000   302.59022      381.55024      18547.592      19362.085     -377.43926    
    263000   300.9952       372.4061       18561.462      19364.528     -383.33933    
    264000   309.05367      373.70054      18527.377      19343.268     -542.37517    
    265000   295.18462      379.72047      18537.046      19339.114     -312.4095     
    266000   305.87118      378.13499      18509.686      19325.458     -316.75203    
    267000   289.82773      375.32364      18530.307      19320.313     -378.48827    
    268000   290.6798       375.66683      18524.591      19316.16      -480.98477    
    269000   300.88168      371.92206      18509.574      19311.995     -373.09252    
    270000   291.27705      382.86169      18528.355      19327.973     -197.68651    
Loop time of 2.48879 on 4 procs for 10000 steps with 481 atoms

Performance: 17.358 ns/day, 1.383 hours/ns, 4018.019 timesteps/s, 1.933 Matom-step/s
99.6% CPU use with 4 MPI tasks x no OpenMP threads

MPI task timing breakdown:
Section |  min time  |  avg time  |  max time  |%varavg| %total
---------------------------------------------------------------
Pair    | 0.34582    | 0.6187     | 0.84767    |  22.9 | 24.86
Bond    | 0.79592    | 0.87796    | 0.97226    |   7.8 | 35.28
Neigh   | 0.017933   | 0.017938   | 0.017944   |   0.0 |  0.72
Comm    | 0.54783    | 0.87051    | 1.0961     |  21.7 | 34.98
Output  | 0.00028638 | 0.00032306 | 0.00040238 |   0.0 |  0.01
Modify  | 0.067426   | 0.068217   | 0.06908    |   0.2 |  2.74
Other   |            | 0.03514    |            |       |  1.41

Nlocal:         120.25 ave         129 max         111 min
Histogram: 1 1 0 0 0 0 0 0 0 2
Nghost:         4164.5 ave        4194 max        4138 min
Histogram: 1 1 0 0 0 0 0 1 0 1
Neighs:              0 ave           0 max           0 min
Histogram: 4 0 0 0 0 0 0 0 0 0

Total # of neighbors = 0
Ave neighs/atom = 0
Ave special neighs/atom = 15.567568
Neighbor list builds = 20
Dangerous builds = 0
fix             myat1 all ave/time 100 10 1000 v_zave v_zdes file simulation_data/abpot/${cpt}.dat
fix             myat1 all ave/time 100 10 1000 v_zave v_zdes file simulation_data/abpot/5.dat
run             50000
Generated 0 of 1 mixed pair_coeff terms from geometric mixing rule
Per MPI rank memory allocation (min/avg/max) = 14.61 | 14.61 | 14.61 Mbytes
   Step          Temp          E_pair         E_mol          TotEng         Press     
    270000   291.27705      382.86169      18528.355      19327.973     -197.68651    
    271000   295.72933      368.39451      18561.6        19353.121     -502.80185    
    272000   317.38715      370.14512      18547.385      19371.644     -637.96089    
    273000   323.77334      384.50516      18524.295      19372.051     -68.494966    
    274000   306.24257      372.59599      18552.708      19363.472     -615.71514    
    275000   312.4983       378.155        18525.18       19350.454     -182.31061    
    276000   305.87975      370.41777      18524.287      19332.354     -504.71109    
    277000   281.74769      373.08094      18552.527      19328.729     -601.09626    
    278000   282.52799      377.33899      18534.401      19315.978     -168.0739     
    279000   292.59915      373.5917       18534.74       19326.98      -541.58221    
    280000   287.1256       371.88925      18546.861      19329.567     -495.1927     
    281000   288.19296      381.17122      18538.651      19332.166     -172.34549    
    282000   320.7441       370.67472      18509.934      19339.526     -474.7874     
    283000   302.72546      381.89542      18522.994      19338.025     -116.68551    
    284000   293.52791      379.08491      18547.637      19346.699     -141.54891    
    285000   288.28378      370.83868      18563.356      19346.668     -594.27175    
    286000   305.49862      382.0961       18526.106      19345.306     -152.82787    
    287000   297.43645      374.15617      18540.476      19340.201     -379.87121    
    288000   311.97791      377.75711      18515.034      19339.166     -445.5712     
    289000   297.53169      377.95231      18534.211      19337.868     -307.72194    
    290000   298.94912      377.64882      18526          19331.381     -470.46597    
    291000   290.41414      377.3274       18529.613      19322.462     -362.47533    
    292000   304.6718       378.62936      18499.166      19313.717     -206.83992    
    293000   289.60959      372.07892      18517.652      19304.101     -346.97478    
    294000   281.56571      374.44894      18526.479      19303.789     -564.80492    
    295000   296.19797      378.43271      18500.764      19302.993     -389.24296    
    296000   293.99912      379.14327      18518.575      19318.368     -113.19141    
    297000   306.57824      369.72068      18536.631      19345.001     -563.09154    
    298000   302.81793      369.56159      18553.999      19356.829     -678.55437    
    299000   307.14752      385.80032      18527.109      19352.372      21.252756    
    300000   317.62324      376.63162      18520.112      19351.195     -359.69446    
    301000   303.85292      374.0794       18536.285      19345.114     -572.85823    
    302000   287.01152      369.81794      18549.243      19329.713     -610.15678    
    303000   301.95078      383.55238      18505.058      19320.639     -153.12228    
    304000   292.30569      379.60753      18507.316      19305.151     -233.70152    
    305000   282.16011      367.92692      18521.321      19292.96      -597.72183    
    306000   280.4075       376.97743      18508.642      19286.823     -369.11319    
    307000   274.89161      378.31401      18514.059      19285.685     -224.39691    
    308000   288.85734      377.31887      18516.653      19307.266     -409.57575    
    309000   308.78115      372.16125      18518.567      19332.529     -635.41069    
    310000   310.97329      376.52659      18527.376      19348.839     -308.93171    
    311000   310.38533      379.57904      18534.394      19358.069     -335.05307    
    312000   298.08209      379.09212      18555.698      19361.282     -327.89118    
    313000   303.59636      372.70632      18552.583      19359.672     -515.72477    
    314000   296.49534      378.14543      18547.128      19349.495     -343.12522    
    315000   295.04499      383.00859      18527.525      19332.681     -336.111      
    316000   290.37329      378.71799      18534.791      19328.972     -243.31613    
    317000   295.56887      371.81337      18525.894      19320.604     -479.22937    
    318000   284.36375      381.03669      18522.627      19310.528     -211.52469    
    319000   293.22986      376.31418      18517.497      19313.361     -288.21607    
    320000   295.30134      374.06325      18539.433      19336.01      -414.68515    
Loop time of 12.5894 on 4 procs for 50000 steps with 481 atoms

Performance: 17.157 ns/day, 1.399 hours/ns, 3971.591 timesteps/s, 1.910 Matom-step/s
99.3% CPU use with 4 MPI tasks x no OpenMP threads

MPI task timing breakdown:
Section |  min time  |  avg time  |  max time  |%varavg| %total
---------------------------------------------------------------
Pair    | 1.7355     | 3.0915     | 4.2455     |  51.1 | 24.56
Bond    | 3.9591     | 4.4048     | 4.9105     |  18.4 | 34.99
Neigh   | 0.12051    | 0.12059    | 0.12065    |   0.0 |  0.96
Comm    | 2.7887     | 4.4402     | 5.5572     |  48.8 | 35.27
Output  | 0.0018323  | 0.0024365  | 0.0026705  |   0.7 |  0.02
Modify  | 0.34237    | 0.35016    | 0.35659    |   1.0 |  2.78
Other   |            | 0.1797     |            |       |  1.43

Nlocal:         120.25 ave         128 max         112 min
Histogram: 1 0 0 1 0 0 0 1 0 1
Nghost:         4173.5 ave        4200 max        4150 min
Histogram: 1 1 0 0 0 0 0 1 0 1
Neighs:              0 ave           0 max           0 min
Histogram: 4 0 0 0 0 0 0 0 0 0

Total # of neighbors = 0
Ave neighs/atom = 0
Ave special neighs/atom = 15.567568
Neighbor list builds = 134
Dangerous builds = 0
unfix           myat1
next            cpt
jump            SELF loop
variable        zdes equal  -15+0.30*(${cpt}-1)
variable        zdes equal  -15+0.30*(6-1)
fix             mytth2 H2 spring tether ${k1} 5 5 ${zdes} 0
fix             mytth2 H2 spring tether 0.5 5 5 ${zdes} 0
fix             mytth2 H2 spring tether 0.5 5 5 -13.5 0
run             10000
Generated 0 of 1 mixed pair_coeff terms from geometric mixing rule
Per MPI rank memory allocation (min/avg/max) = 14.61 | 14.61 | 14.61 Mbytes
   Step          Temp          E_pair         E_mol          TotEng         Press     
    320000   295.30134      374.06325      18539.433      19336.01      -414.68515    
    321000   301.85382      375.01185      18556.024      19362.925     -538.56808    
    322000   297.40356      375.43454      18571.274      19372.23      -250.34281    
    323000   310.99052      381.71586      18542.228      19368.905     -219.73301    
    324000   304.57832      368.1448       18553.141      19357.073     -615.16879    
    325000   294.29147      370.04841      18553.866      19344.983     -480.00242    
    326000   307.52558      380.26409      18510.307      19330.575     -301.84408    
    327000   311.55627      372.68202      18505.91       19324.363     -459.88118    
    328000   296.4126       372.73622      18528.612      19325.452     -428.76969    
    329000   299.13657      369.79504      18527.704      19325.501     -706.89959    
    330000   289.51799      380.70195      18521.489      19316.43      -195.16526    
Loop time of 2.49406 on 4 procs for 10000 steps with 481 atoms

Performance: 17.321 ns/day, 1.386 hours/ns, 4009.528 timesteps/s, 1.929 Matom-step/s
99.7% CPU use with 4 MPI tasks x no OpenMP threads

MPI task timing breakdown:
Section |  min time  |  avg time  |  max time  |%varavg| %total
---------------------------------------------------------------
Pair    | 0.34014    | 0.61744    | 0.84841    |  23.3 | 24.76
Bond    | 0.79426    | 0.87638    | 0.97292    |   7.7 | 35.14
Neigh   | 0.029368   | 0.029408   | 0.029448   |   0.0 |  1.18
Comm    | 0.53993    | 0.8691     | 1.1088     |  22.4 | 34.85
Output  | 0.00041837 | 0.00044556 | 0.00050712 |   0.0 |  0.02
Modify  | 0.064176   | 0.066344   | 0.068547   |   0.7 |  2.66
Other   |            | 0.03494    |            |       |  1.40

Nlocal:         120.25 ave         129 max         111 min
Histogram: 1 0 1 0 0 0 0 0 1 1
Nghost:         4173.5 ave        4196 max        4151 min
Histogram: 2 0 0 0 0 0 0 0 0 2
Neighs:              0 ave           0 max           0 min
Histogram: 4 0 0 0 0 0 0 0 0 0

Total # of neighbors = 0
Ave neighs/atom = 0
Ave special neighs/atom = 15.567568
Neighbor list builds = 33
Dangerous builds = 0
fix             myat1 all ave/time 100 10 1000 v_zave v_zdes file simulation_data/abpot/${cpt}.dat
fix             myat1 all ave/time 100 10 1000 v_zave v_zdes file simulation_data/abpot/6.dat
run             50000
Generated 0 of 1 mixed pair_coeff terms from geometric mixing rule
Per MPI rank memory allocation (min/avg/max) = 14.61 | 14.61 | 14.61 Mbytes
   Step          Temp          E_pair         E_mol          TotEng         Press     
    330000   289.51799      380.70195      18521.489      19316.43      -195.16526    
    331000   286.83916      374.32716      18540.19       19324.924     -422.30478    
    332000   316.11329      371.40986      18519.792      19343.493     -468.09076    
    333000   318.4383       373.56041      18543.723      19372.902     -446.88307    
    334000   312.7327       380.43989      18559.547      19387.442     -144.67       
    335000   315.98485      373.68597      18551.705      19377.498     -527.1008     
    336000   321.19771      374.68855      18528.13       19362.385     -457.12381    
    337000   300.77196      374.42139      18539.308      19344.07      -350.75066    
    338000   316.61611      380.07858      18502.732      19335.822     -165.91531    
    339000   306.24578      375.2583       18517.272      19330.703     -249.49087    
    340000   290.84736      373.77218      18534.765      19324.679     -535.40476    
    341000   290.36884      375.99607      18531.861      19323.314     -336.12374    
    342000   299.28634      375.97587      18521.963      19326.154     -246.32644    
    343000   286.61393      372.40768      18548.984      19331.476     -350.83495    
    344000   315.89059      369.89476      18528.7        19350.567     -503.66405    
    345000   314.5261       381.65591      18538.002      19369.678     -200.93531    
    346000   310.03108      372.1916       18557.374      19373.154     -533.24229    
    347000   318.44291      378.07563      18546.455      19380.155     -387.38626    
    348000   294.79191      371.6962       18570.21       19363.691     -484.81406    
    349000   305.8418       376.15423      18527.499      19341.248     -358.19394    
    350000   307.02424      374.7147       18518.61       19332.612     -300.27257    
    351000   287.66063      368.33633      18549.851      19329.769     -554.76765    
    352000   296.73784      370.3923       18535.103      19330.065     -552.32692    
    353000   279.22154      381.41816      18551.225      19332.151     -85.863632    
    354000   296.91646      371.43143      18535.809      19332.065     -489.27714    
    355000   303.86386      372.38618      18540.562      19347.713     -466.59142    
    356000   304.17031      375.24408      18543.559      19354.006     -323.5303     
    357000   315.8119       375.67011      18541.004      19368.534     -445.49958    
    358000   288.99983      380.99847      18576.68       19371.176     -288.81302    
    359000   328.94035      373.20438      18539.329      19383.177     -484.72362    
    360000   327.40329      371.83623      18548.495      19388.776     -530.50254    
    361000   294.91357      380.26418      18564.216      19366.44      -206.14764    
    362000   309.15996      376.885        18521.749      19340.977     -376.24501    
    363000   292.41187      373.58735      18536.592      19328.559     -486.83626    
    364000   278.70885      372.60855      18554.023      19325.405     -556.14544    
    365000   289.42921      378.18387      18522.714      19315.01      -314.82325    
    366000   292.03549      378.41392      18531.433      19327.688     -239.27959    
    367000   297.41557      368.79071      18538.782      19333.111     -745.75906    
    368000   312.76015      373.84239      18530.715      19352.051     -344.29156    
    369000   304.16783      377.05931      18549.467      19361.726     -221.40501    
    370000   303.93725      383.41132      18553.665      19371.946     -187.08037    
    371000   321.2845       372.31403      18544.966      19376.971     -562.07017    
    372000   330.17017      380.38469      18518.074      19370.862     -313.42309    
    373000   307.3344       380.89088      18536.187      19356.809     -231.64661    
    374000   303.58583      374.22325      18547.177      19355.767     -433.76983    
    375000   301.31679      378.3403       18543.917      19353.378     -187.75047    
    376000   294.74326      371.8343       18554.545      19348.095     -536.10851    
    377000   285.70311      375.76253      18563.533      19348.076     -537.89181    
    378000   281.59967      379.72381      18563.262      19345.896     -112.21091    
    379000   295.90285      370.25796      18550.214      19343.846     -636.81692    
    380000   310.66773      377.11825      18527.621      19349.239     -57.640486    
Loop time of 12.524 on 4 procs for 50000 steps with 481 atoms

Performance: 17.247 ns/day, 1.392 hours/ns, 3992.333 timesteps/s, 1.920 Matom-step/s
99.4% CPU use with 4 MPI tasks x no OpenMP threads

MPI task timing breakdown:
Section |  min time  |  avg time  |  max time  |%varavg| %total
---------------------------------------------------------------
Pair    | 1.7166     | 3.0805     | 4.2457     |  51.6 | 24.60
Bond    | 3.9312     | 4.3844     | 4.8874     |  18.1 | 35.01
Neigh   | 0.12276    | 0.12278    | 0.12279    |   0.0 |  0.98
Comm    | 2.7606     | 4.4176     | 5.5566     |  49.4 | 35.27
Output  | 0.0017422  | 0.0024203  | 0.0026913  |   0.8 |  0.02
Modify  | 0.32977    | 0.34075    | 0.35154    |   1.6 |  2.72
Other   |            | 0.1756     |            |       |  1.40

Nlocal:         120.25 ave         129 max         111 min
Histogram: 1 1 0 0 0 0 0 0 1 1
Nghost:           4163 ave        4187 max        4138 min
Histogram: 1 1 0 0 0 0 0 0 0 2
Neighs:              0 ave           0 max           0 min
Histogram: 4 0 0 0 0 0 0 0 0 0

Total # of neighbors = 0
Ave neighs/atom = 0
Ave special neighs/atom = 15.567568
Neighbor list builds = 137
Dangerous builds = 0
unfix           myat1
next            cpt
jump            SELF loop
variable        zdes equal  -15+0.30*(${cpt}-1)
variable        zdes equal  -15+0.30*(7-1)
fix             mytth2 H2 spring tether ${k1} 5 5 ${zdes} 0
fix             mytth2 H2 spring tether 0.5 5 5 ${zdes} 0
fix             mytth2 H2 spring tether 0.5 5 5 -13.2 0
run             10000
Generated 0 of 1 mixed pair_coeff terms from geometric mixing rule
Per MPI rank memory allocation (min/avg/max) = 14.61 | 14.61 | 14.61 Mbytes
   Step          Temp          E_pair         E_mol          TotEng         Press     
    380000   310.66773      377.11825      18527.621      19349.239     -57.640486    
    381000   285.38609      377.88533      18558.274      19344.486     -354.0643     
    382000   292.27679      371.14652      18556.016      19345.349     -493.00577    
    383000   318.07173      374.56643      18519.28       19348.94      -257.20175    
    384000   296.68798      377.629        18544.012      19346.139     -248.16842    
    385000   317.80918      377.43924      18520.729      19352.886     -168.78961    
    386000   313.1516       377.05453      18527.866      19352.975     -363.74512    
    387000   277.71867      374.76291      18574.017      19346.137     -493.87243    
    388000   284.91503      382.48703      18552.425      19342.566     -162.52261    
    389000   314.87509      377.55623      18518.838      19346.914     -257.3278     
    390000   290.66267      372.23156      18556.961      19345.07      -380.61953    
Loop time of 2.48668 on 4 procs for 10000 steps with 481 atoms

Performance: 17.373 ns/day, 1.381 hours/ns, 4021.425 timesteps/s, 1.934 Matom-step/s
99.6% CPU use with 4 MPI tasks x no OpenMP threads

MPI task timing breakdown:
Section |  min time  |  avg time  |  max time  |%varavg| %total
---------------------------------------------------------------
Pair    | 0.3428     | 0.61477    | 0.84326    |  22.9 | 24.72
Bond    | 0.78787    | 0.87561    | 0.97264    |   7.8 | 35.21
Neigh   | 0.021507   | 0.021515   | 0.021524   |   0.0 |  0.87
Comm    | 0.54972    | 0.87413    | 1.1048     |  21.9 | 35.15
Output  | 0.00025642 | 0.00029152 | 0.00035983 |   0.0 |  0.01
Modify  | 0.063942   | 0.065228   | 0.066422   |   0.4 |  2.62
Other   |            | 0.03514    |            |       |  1.41

Nlocal:         120.25 ave         126 max         114 min
Histogram: 1 0 0 1 0 0 0 1 0 1
Nghost:        4171.25 ave        4197 max        4149 min
Histogram: 1 1 0 0 0 0 0 1 0 1
Neighs:              0 ave           0 max           0 min
Histogram: 4 0 0 0 0 0 0 0 0 0

Total # of neighbors = 0
Ave neighs/atom = 0
Ave special neighs/atom = 15.567568
Neighbor list builds = 24
Dangerous builds = 0
fix             myat1 all ave/time 100 10 1000 v_zave v_zdes file simulation_data/abpot/${cpt}.dat
fix             myat1 all ave/time 100 10 1000 v_zave v_zdes file simulation_data/abpot/7.dat
run             50000
Generated 0 of 1 mixed pair_coeff terms from geometric mixing rule
Per MPI rank memory allocation (min/avg/max) = 14.61 | 14.61 | 14.61 Mbytes
   Step          Temp          E_pair         E_mol          TotEng         Press     
    390000   290.66267      372.23156      18556.961      19345.07      -380.61953    
    391000   296.29829      375.15109      18542.133      19341.224     -408.40781    
    392000   302.15144      379.29476      18515.909      19327.519     -126.10231    
    393000   296.31865      374.67035      18521.335      19319.975     -260.55443    
    394000   297.02761      369.43044      18530.079      19324.494     -414.06255    
    395000   296.34466      371.68019      18526.791      19322.478     -421.07343    
    396000   307.17189      377.3411       18505.24       19322.079     -191.71282    
    397000   300.2143       374.69963      18543.619      19347.862     -367.32943    
    398000   310.71925      366.75337      18553.986      19365.313     -684.73153    
    399000   312.4447       376.26048      18549.074      19372.377     -250.05712    
    400000   303.60294      382.4804       18551.389      19368.261     -208.7174     
    401000   312.94609      376.94519      18547.076      19371.781     -334.56642    
    402000   294.51817      371.05223      18562.784      19355.23      -672.45735    
    403000   295.40345      378.63171      18540.813      19342.105     -353.18859    
    404000   289.3401       380.37594      18527.154      19321.514     -235.61387    
    405000   286.88732      373.92146      18521.742      19306.139     -472.53212    
    406000   287.42371      370.35187      18529.496      19311.091     -536.70981    
    407000   283.62331      375.205        18537.057      19318.067     -464.9115     
    408000   300.75611      382.3871       18519.079      19331.785     -297.6561     
    409000   302.14024      374.57243      18529.189      19336.06      -399.05443    
    410000   314.21142      367.1331       18534.764      19351.467     -787.1121     
    411000   297.14392      377.47045      18551.969      19354.589     -338.79089    
    412000   299.36079      376.9232       18548.081      19353.326     -367.46636    
    413000   296.6564       373.58479      18549.719      19347.756     -527.72002    
    414000   307.15522      373.61158      18531.173      19344.259     -551.47334    
    415000   275.8886       376.23395      18539.062      19310.035     -285.05       
    416000   277.05959      378.91462      18520.562      19295.89      -234.50178    
    417000   295.9925       374.7652       18505.386      19303.653     -518.685      
    418000   294.89898      369.78158      18514.199      19305.919     -534.68289    
    419000   284.90111      383.65609      18531.115      19322.404     -201.75252    
    420000   316.6106       373.15489      18510.947      19337.105     -473.16348    
    421000   293.96158      375.42638      18546.453      19342.476     -450.01587    
    422000   293.08593      376.63156      18550.432      19346.408     -328.50696    
    423000   304.05125      375.66013      18543.015      19353.708     -498.92061    
    424000   310.15819      379.99948      18520.744      19344.515     -370.967      
    425000   297.5367       374.92331      18541.618      19342.253     -414.63927    
    426000   302.58774      380.01515      18525.251      19338.205     -222.71076    
    427000   277.46662      374.08464      18543.387      19314.467     -515.15777    
    428000   291.95657      378.76392      18508.206      19304.698     -316.62759    
    429000   294.40851      374.1409       18497.285      19292.663     -385.64035    
    430000   272.87489      372.27459      18518.119      19280.82      -412.53892    
    431000   282.92695      376.86732      18513.355      19295.031     -375.60523    
    432000   291.1498       377.65823      18519.607      19313.839     -447.79665    
    433000   283.76073      375.2375       18543.131      19324.371     -427.3368     
    434000   289.30235      381.04749      18536.529      19331.507     -175.1225     
    435000   301.68229      373.92359      18522.792      19328.36      -540.36181    
    436000   305.98136      379.37344      18514.517      19331.685     -302.67283    
    437000   302.01267      384.53612      18521.33       19337.983     -243.48666    
    438000   298.17488      374.12598      18541.453      19342.204     -589.70033    
    439000   305.99178      375.86738      18528.437      19342.114     -310.64217    
    440000   301.80958      379.12452      18523.573      19334.523     -486.06058    
Loop time of 12.7363 on 4 procs for 50000 steps with 481 atoms

Performance: 16.959 ns/day, 1.415 hours/ns, 3925.792 timesteps/s, 1.888 Matom-step/s
99.0% CPU use with 4 MPI tasks x no OpenMP threads

MPI task timing breakdown:
Section |  min time  |  avg time  |  max time  |%varavg| %total
---------------------------------------------------------------
Pair    | 1.7441     | 3.1208     | 4.2996     |  51.9 | 24.50
Bond    | 3.9762     | 4.4277     | 4.9229     |  17.9 | 34.76
Neigh   | 0.112      | 0.11206    | 0.11212    |   0.0 |  0.88
Comm    | 2.8639     | 4.5395     | 5.7008     |  49.3 | 35.64
Output  | 0.00193    | 0.0025287  | 0.0027436  |   0.7 |  0.02
Modify  | 0.34573    | 0.34953    | 0.35405    |   0.5 |  2.74
Other   |            | 0.1842     |            |       |  1.45

Nlocal:         120.25 ave         128 max         112 min
Histogram: 1 0 1 0 0 0 0 0 1 1
Nghost:         4167.5 ave        4197 max        4143 min
Histogram: 1 1 0 0 0 0 1 0 0 1
Neighs:              0 ave           0 max           0 min
Histogram: 4 0 0 0 0 0 0 0 0 0

Total # of neighbors = 0
Ave neighs/atom = 0
Ave special neighs/atom = 15.567568
Neighbor list builds = 123
Dangerous builds = 0
unfix           myat1
next            cpt
jump            SELF loop
variable        zdes equal  -15+0.30*(${cpt}-1)
variable        zdes equal  -15+0.30*(8-1)
fix             mytth2 H2 spring tether ${k1} 5 5 ${zdes} 0
fix             mytth2 H2 spring tether 0.5 5 5 ${zdes} 0
fix             mytth2 H2 spring tether 0.5 5 5 -12.9 0
run             10000
Generated 0 of 1 mixed pair_coeff terms from geometric mixing rule
Per MPI rank memory allocation (min/avg/max) = 14.61 | 14.61 | 14.61 Mbytes
   Step          Temp          E_pair         E_mol          TotEng         Press     
    440000   301.80958      379.12452      18523.573      19334.523     -486.06058    
    441000   296.30085      380.47972      18530.483      19334.907     -329.54091    
    442000   308.25036      377.81664      18509.341      19328.199     -184.46111    
    443000   302.82559      369.54568      18504.851      19307.676     -622.1406     
    444000   296.83896      382.35876      18489.368      19296.441     -197.80361    
    445000   291.55034      382.78249      18494.56       19294.49      -226.81788    
    446000   297.95667      370.15828      18499.744      19296.215     -633.17589    
    447000   298.18492      373.49472      18519.662      19319.796     -363.30935    
    448000   312.91242      376.95897      18514.138      19338.809     -322.39455    
    449000   312.10527      381.41721      18517.178      19345.152     -218.34037    
    450000   318.18741      371.41633      18526.444      19353.119     -564.83235    
Loop time of 2.51084 on 4 procs for 10000 steps with 481 atoms

Performance: 17.205 ns/day, 1.395 hours/ns, 3982.731 timesteps/s, 1.916 Matom-step/s
99.1% CPU use with 4 MPI tasks x no OpenMP threads

MPI task timing breakdown:
Section |  min time  |  avg time  |  max time  |%varavg| %total
---------------------------------------------------------------
Pair    | 0.34781    | 0.62075    | 0.85496    |  23.1 | 24.72
Bond    | 0.78713    | 0.88093    | 0.98032    |   8.3 | 35.08
Neigh   | 0.019864   | 0.019872   | 0.019881   |   0.0 |  0.79
Comm    | 0.55676    | 0.88906    | 1.1117     |  22.0 | 35.41
Output  | 0.00037371 | 0.00041388 | 0.00050604 |   0.0 |  0.02
Modify  | 0.062445   | 0.063872   | 0.065327   |   0.5 |  2.54
Other   |            | 0.03594    |            |       |  1.43

Nlocal:         120.25 ave         128 max         112 min
Histogram: 1 0 0 0 1 0 1 0 0 1
Nghost:        4166.75 ave        4186 max        4144 min
Histogram: 1 1 0 0 0 0 0 0 0 2
Neighs:              0 ave           0 max           0 min
Histogram: 4 0 0 0 0 0 0 0 0 0

Total # of neighbors = 0
Ave neighs/atom = 0
Ave special neighs/atom = 15.567568
Neighbor list builds = 22
Dangerous builds = 0
fix             myat1 all ave/time 100 10 1000 v_zave v_zdes file simulation_data/abpot/${cpt}.dat
fix             myat1 all ave/time 100 10 1000 v_zave v_zdes file simulation_data/abpot/8.dat
run             50000
Generated 0 of 1 mixed pair_coeff terms from geometric mixing rule
Per MPI rank memory allocation (min/avg/max) = 14.61 | 14.61 | 14.61 Mbytes
   Step          Temp          E_pair         E_mol          TotEng         Press     
    450000   318.18741      371.41633      18526.444      19353.119     -564.83235    
    451000   323.00105      376.48318      18515.367      19353.996     -400.3337     
    452000   303.11312      378.99014      18520.242      19332.923     -394.13872    
    453000   285.03926      381.55528      18540.076      19329.462     -335.90993    
    454000   304.89453      373.0745       18512.473      19321.787     -458.53505    
    455000   291.80451      373.47462      18519.776      19310.761     -530.62518    
    456000   286.80122      379.76242      18515.307      19305.421     -379.34666    
    457000   305.34042      382.22116      18502.364      19321.463     -195.23449    
    458000   302.38429      376.20086      18536.139      19344.988     -505.18516    
    459000   307.91048      376.6019       18551.52       19368.677     -364.15482    
    460000   320.84177      381.02179      18533.465      19373.544     -198.84286    
    461000   314.02417      379.59311      18533.957      19362.853     -322.01618    
    462000   303.60651      375.79449      18542.075      19352.267     -484.62923    
    463000   284.58902      376.07992      18549.756      19333.022     -456.06291    
    464000   290.03924      377.38289      18530.888      19323.256     -359.75357    
    465000   296.03808      377.51496      18519.873      19320.956     -194.47449    
    466000   289.64944      375.54235      18525.778      19315.748     -554.00386    
    467000   283.43389      376.01464      18538.901      19320.45      -428.24663    
    468000   307.73637      381.58101      18514.702      19336.589     -172.68666    
    469000   307.23289      373.25761      18541.183      19354.026     -447.34734    
    470000   324.68174      377.38667      18532.207      19374.144     -410.7549     
    471000   339.36559      380.35639      18525.18       19391.097     -196.82712    
    472000   325.56637      378.56574      18561.361      19405.743     -254.96348    
    473000   339.22472      368.87673      18565.482      19419.718     -534.57215    
    474000   354.44101      379.71874      18539.559      19426.408     -249.45794    
    475000   325.89921      382.51189      18530.128      19378.933     -214.34323    
    476000   317.31672      382.11748      18522.363      19358.494     -201.7592     
    477000   310.56117      369.04691      18529.871      19343.266     -516.44411    
    478000   295.85175      372.67923      18531.467      19327.447     -478.31772    
    479000   280.59991      385.93755      18526.173      19313.59      -47.771771    
    480000   292.53322      376.82343      18507.928      19303.304     -363.3885     
    481000   286.85422      372.38321      18526.615      19309.426     -443.60093    
    482000   281.36808      373.34158      18535.076      19310.996     -403.0619     
    483000   308.93162      380.90411      18495.299      19318.219     -273.7303     
    484000   303.38636      381.95064      18516.035      19332.068     -160.79553    
    485000   301.40897      371.52679      18546.095      19348.874     -518.32993    
    486000   303.26482      372.35961      18548.47       19354.738     -540.03788    
    487000   309.38704      391.08734      18520.182      19353.936     -26.415401    
    488000   313.8527       379.52559      18525.54       19354.122     -336.35202    
    489000   299.46532      367.90896      18538.748      19335.129     -666.85829    
    490000   299.05135      371.21846      18516.33       19315.428     -412.66635    
    491000   278.72115      384.77033      18512.806      19296.367     -119.36957    
    492000   278.41386      381.95701      18514.921      19295.229     -124.60286    
    493000   292.05132      367.45119      18521.224      19306.539     -709.0557     
    494000   289.8136       370.06458      18523.361      19308.088     -587.55199    
    495000   304.77812      385.98549      18503.494      19325.553      138.13641    
    496000   301.64413      379.66556      18523.476      19334.731     -391.34331    
    497000   318.03505      367.39253      18533.834      19356.268     -501.3163     
    498000   310.39688      379.6294       18530.376      19354.118     -198.07294    
    499000   323.84197      379.95942      18508.624      19351.933     -130.2561     
    500000   308.03711      375.5414       18537.436      19353.714     -385.98935    
Loop time of 12.4794 on 4 procs for 50000 steps with 481 atoms

Performance: 17.308 ns/day, 1.387 hours/ns, 4006.596 timesteps/s, 1.927 Matom-step/s
99.5% CPU use with 4 MPI tasks x no OpenMP threads

MPI task timing breakdown:
Section |  min time  |  avg time  |  max time  |%varavg| %total
---------------------------------------------------------------
Pair    | 1.7217     | 3.0746     | 4.2245     |  51.1 | 24.64
Bond    | 3.9276     | 4.3929     | 4.8916     |  18.4 | 35.20
Neigh   | 0.086424   | 0.08645    | 0.086475   |   0.0 |  0.69
Comm    | 2.7597     | 4.4051     | 5.5191     |  48.9 | 35.30
Output  | 0.0014844  | 0.0020233  | 0.0022293  |   0.7 |  0.02
Modify  | 0.33746    | 0.34156    | 0.34514    |   0.5 |  2.74
Other   |            | 0.1767     |            |       |  1.42

Nlocal:         120.25 ave         130 max         110 min
Histogram: 1 1 0 0 0 0 0 0 0 2
Nghost:        4157.75 ave        4188 max        4128 min
Histogram: 1 0 1 0 0 0 0 1 0 1
Neighs:              0 ave           0 max           0 min
Histogram: 4 0 0 0 0 0 0 0 0 0

Total # of neighbors = 0
Ave neighs/atom = 0
Ave special neighs/atom = 15.567568
Neighbor list builds = 96
Dangerous builds = 0
unfix           myat1
next            cpt
jump            SELF loop
variable        zdes equal  -15+0.30*(${cpt}-1)
variable        zdes equal  -15+0.30*(9-1)
fix             mytth2 H2 spring tether ${k1} 5 5 ${zdes} 0
fix             mytth2 H2 spring tether 0.5 5 5 ${zdes} 0
fix             mytth2 H2 spring tether 0.5 5 5 -12.6 0
run             10000
Generated 0 of 1 mixed pair_coeff terms from geometric mixing rule
Per MPI rank memory allocation (min/avg/max) = 14.61 | 14.61 | 14.61 Mbytes
   Step          Temp          E_pair         E_mol          TotEng         Press     
    500000   308.03711      375.5414       18537.436      19353.714     -385.98935    
    501000   289.01928      369.36969      18559.288      19342.183     -745.48735    
    502000   280.5301       378.3275       18537.883      19317.589     -176.65905    
    503000   272.21389      376.77151      18531.054      19297.306     -315.52048    
    504000   290.79821      372.17301      18508.139      19296.383     -423.825      
    505000   283.24276      367.38254      18527.813      19300.456     -604.48389    
    506000   292.78938      384.32989      18508.336      19311.586     -75.178612    
    507000   295.86784      376.36818      18523.287      19322.98      -207.66579    
    508000   304.17407      367.5825       18535.807      19338.598     -649.30621    
    509000   301.3302       371.2319       18528.269      19330.641     -535.76878    
    510000   296.69897      389.64046      18524.776      19338.93       245.53066    
Loop time of 2.47903 on 4 procs for 10000 steps with 481 atoms

Performance: 17.426 ns/day, 1.377 hours/ns, 4033.844 timesteps/s, 1.940 Matom-step/s
99.6% CPU use with 4 MPI tasks x no OpenMP threads

MPI task timing breakdown:
Section |  min time  |  avg time  |  max time  |%varavg| %total
---------------------------------------------------------------
Pair    | 0.34243    | 0.6153     | 0.84476    |  23.0 | 24.82
Bond    | 0.78774    | 0.87735    | 0.97861    |   8.0 | 35.39
Neigh   | 0.013208   | 0.013211   | 0.013213   |   0.0 |  0.53
Comm    | 0.53926    | 0.87078    | 1.1058     |  22.4 | 35.13
Output  | 0.00025237 | 0.00028636 | 0.00035542 |   0.0 |  0.01
Modify  | 0.066066   | 0.067064   | 0.068244   |   0.3 |  2.71
Other   |            | 0.03503    |            |       |  1.41

Nlocal:         120.25 ave         124 max         116 min
Histogram: 1 0 1 0 0 0 0 0 1 1
Nghost:        4166.75 ave        4192 max        4143 min
Histogram: 1 0 1 0 0 0 1 0 0 1
Neighs:              0 ave           0 max           0 min
Histogram: 4 0 0 0 0 0 0 0 0 0

Total # of neighbors = 0
Ave neighs/atom = 0
Ave special neighs/atom = 15.567568
Neighbor list builds = 15
Dangerous builds = 0
fix             myat1 all ave/time 100 10 1000 v_zave v_zdes file simulation_data/abpot/${cpt}.dat
fix             myat1 all ave/time 100 10 1000 v_zave v_zdes file simulation_data/abpot/9.dat
run             50000
Generated 0 of 1 mixed pair_coeff terms from geometric mixing rule
Per MPI rank memory allocation (min/avg/max) = 14.61 | 14.61 | 14.61 Mbytes
   Step          Temp          E_pair         E_mol          TotEng         Press     
    510000   296.69897      389.64046      18524.776      19338.93       245.53066    
    511000   315.0964       373.78199      18524.287      19348.905     -317.47898    
    512000   298.65554      366.42561      18554.663      19348.402     -737.09158    
    513000   322.45652      375.39985      18509.144      19345.911     -454.51636    
    514000   294.51372      386.44346      18529.85       19337.681     -81.267348    
    515000   295.90773      378.87258      18520.761      19323.015     -207.86977    
    516000   274.2575       360.14858      18551.977      19304.53      -936.75212    
    517000   284.38263      377.04191      18517.535      19301.468     -310.26528    
    518000   284.0207       389.71581      18494.59       19290.68       14.548688    
    519000   282.50473      371.65326      18533.684      19309.542     -590.20193    
    520000   288.95067      359.38015      18557.7        19330.508     -831.26758    
    521000   316.23409      381.00403      18507.48       19340.948     -171.55493    
    522000   301.78549      388.46465      18519.313      19339.569     -30.32918     
    523000   310.52482      376.08701      18524.632      19345.015     -390.81832    
    524000   308.79365      361.97406      18544.104      19347.896     -881.46318    
    525000   295.46453      378.20609      18538.839      19339.792     -276.82272    
    526000   306.8347       389.15376      18497.244      19325.413      140.96357    
    527000   289.92741      369.82005      18545.121      19329.766     -641.98548    
    528000   284.6913       362.93032      18547.857      19318.12      -782.69522    
    529000   291.36839      381.97929      18491.069      19289.935     -46.696489    
    530000   269.81546      385.96861      18502.877      19274.894      6.9118865    
    531000   297.68599      362.69007      18500.856      19289.471     -855.23031    
    532000   276.97343      370.4609       18533.774      19300.526     -348.92968    
    533000   282.51915      381.76506      18531.788      19317.778     -100.57466    
    534000   297.65597      379.73364      18519.006      19324.622     -277.72638    
    535000   297.5005       368.86437      18538.001      19332.525     -528.40779    
    536000   305.49104      370.02989      18536.562      19343.685     -606.61286    
    537000   321.10038      381.92448      18498.703      19340.055      48.653312    
    538000   294.86513      379.73025      18540.148      19341.768     -329.21822    
    539000   315.44021      367.8947       18525.327      19344.55      -561.16497    
    540000   286.94404      373.67076      18555.593      19339.82      -582.80788    
    541000   278.66618      380.59901      18543.931      19323.243     -87.364309    
    542000   288.14126      380.62995      18526.273      19319.172     -446.71943    
    543000   286.94521      368.47776      18533.285      19312.321     -608.32369    
    544000   298.02503      370.73116      18501.512      19298.654     -490.00245    
    545000   301.00917      384.29099      18489.358      19304.329      31.57719     
    546000   290.04298      370.53411      18536.226      19321.751     -465.46046    
    547000   311.27417      370.80394      18525.581      19341.753     -574.89831    
    548000   305.45566      379.30973      18536.008      19352.36      -428.67373    
    549000   297.53752      380.44176      18549.439      19355.594     -296.14892    
    550000   310.46491      372.74196      18544.647      19361.598     -476.25267    
    551000   303.59448      370.53184      18544.866      19349.777     -552.40638    
    552000   305.86322      374.20947      18525.36       19337.195     -449.06465    
    553000   284.74241      382.96885      18532.93       19323.305     -192.81454    
    554000   300.81155      369.50882      18515.779      19315.686     -582.96833    
    555000   281.71969      370.09553      18535.753      19308.93      -721.38151    
    556000   289.91086      386.71656      18505.228      19306.746     -78.474599    
    557000   294.81608      373.35434      18527.101      19322.275     -413.10393    
    558000   310.30512      368.25274      18542.163      19354.397     -673.09068    
    559000   302.58035      376.49529      18557.344      19366.768     -290.51196    
    560000   305.16929      381.19149      18546.553      19364.377     -293.36535    
Loop time of 12.4559 on 4 procs for 50000 steps with 481 atoms

Performance: 17.341 ns/day, 1.384 hours/ns, 4014.149 timesteps/s, 1.931 Matom-step/s
99.5% CPU use with 4 MPI tasks x no OpenMP threads

MPI task timing breakdown:
Section |  min time  |  avg time  |  max time  |%varavg| %total
---------------------------------------------------------------
Pair    | 1.7227     | 3.0716     | 4.215      |  50.9 | 24.66
Bond    | 3.9656     | 4.3976     | 4.8938     |  18.0 | 35.31
Neigh   | 0.077489   | 0.077532   | 0.077574   |   0.0 |  0.62
Comm    | 2.7361     | 4.3809     | 5.5088     |  48.9 | 35.17
Output  | 0.0014636  | 0.001974   | 0.0021653  |   0.7 |  0.02
Modify  | 0.34338    | 0.35084    | 0.35882    |   1.0 |  2.82
Other   |            | 0.1756     |            |       |  1.41

Nlocal:         120.25 ave         128 max         112 min
Histogram: 2 0 0 0 0 0 0 0 0 2
Nghost:        4178.75 ave        4201 max        4157 min
Histogram: 2 0 0 0 0 0 0 0 0 2
Neighs:              0 ave           0 max           0 min
Histogram: 4 0 0 0 0 0 0 0 0 0

Total # of neighbors = 0
Ave neighs/atom = 0
Ave special neighs/atom = 15.567568
Neighbor list builds = 86
Dangerous builds = 0
unfix           myat1
next            cpt
jump            SELF loop
variable        zdes equal  -15+0.30*(${cpt}-1)
variable        zdes equal  -15+0.30*(10-1)
fix             mytth2 H2 spring tether ${k1} 5 5 ${zdes} 0
fix             mytth2 H2 spring tether 0.5 5 5 ${zdes} 0
fix             mytth2 H2 spring tether 0.5 5 5 -12.3 0
run             10000
Generated 0 of 1 mixed pair_coeff terms from geometric mixing rule
Per MPI rank memory allocation (min/avg/max) = 14.61 | 14.61 | 14.61 Mbytes
   Step          Temp          E_pair         E_mol          TotEng         Press     
    560000   305.16929      381.19149      18546.553      19364.377     -293.36535    
    561000   315.10751      377.92742      18534.895      19363.675     -316.32188    
    562000   309.98325      366.28163      18541.483      19351.285     -745.08967    
    563000   292.69622      372.47314      18540.611      19331.871     -549.75737    
    564000   294.34605      382.42392      18510.469      19314.04      -169.11255    
    565000   310.18211      374.22332      18501.47       19319.498     -418.38612    
    566000   307.94588      363.44469      18513.365      19317.415     -788.5812     
    567000   284.19123      374.55228      18539.055      19320.225     -304.86801    
    568000   294.58001      385.62684      18520.909      19328.017     -102.97684    
    569000   311.72976      374.08821      18529.071      19349.179     -262.60249    
    570000   306.38927      367.13819      18571.112      19376.628     -755.77467    
Loop time of 2.48836 on 4 procs for 10000 steps with 481 atoms

Performance: 17.361 ns/day, 1.382 hours/ns, 4018.718 timesteps/s, 1.933 Matom-step/s
99.6% CPU use with 4 MPI tasks x no OpenMP threads

MPI task timing breakdown:
Section |  min time  |  avg time  |  max time  |%varavg| %total
---------------------------------------------------------------
Pair    | 0.34431    | 0.6142     | 0.8445     |  22.9 | 24.68
Bond    | 0.78699    | 0.87899    | 0.97957    |   8.2 | 35.32
Neigh   | 0.016964   | 0.016966   | 0.016967   |   0.0 |  0.68
Comm    | 0.54971    | 0.87447    | 1.0917     |  21.7 | 35.14
Output  | 0.00024437 | 0.00026686 | 0.00032163 |   0.0 |  0.01
Modify  | 0.062134   | 0.068489   | 0.07473    |   2.3 |  2.75
Other   |            | 0.03498    |            |       |  1.41

Nlocal:         120.25 ave         127 max         113 min
Histogram: 1 0 1 0 0 0 0 0 1 1
Nghost:        4172.75 ave        4198 max        4150 min
Histogram: 1 1 0 0 0 0 0 1 0 1
Neighs:              0 ave           0 max           0 min
Histogram: 4 0 0 0 0 0 0 0 0 0

Total # of neighbors = 0
Ave neighs/atom = 0
Ave special neighs/atom = 15.567568
Neighbor list builds = 19
Dangerous builds = 0
fix             myat1 all ave/time 100 10 1000 v_zave v_zdes file simulation_data/abpot/${cpt}.dat
fix             myat1 all ave/time 100 10 1000 v_zave v_zdes file simulation_data/abpot/10.dat
run             50000
Generated 0 of 1 mixed pair_coeff terms from geometric mixing rule
Per MPI rank memory allocation (min/avg/max) = 14.61 | 14.61 | 14.61 Mbytes
   Step          Temp          E_pair         E_mol          TotEng         Press     
    570000   306.38927      367.13819      18571.112      19376.628     -755.77467    
    571000   322.36868      375.99416      18539.739      19376.975     -246.77405    
    572000   307.28818      385.83683      18537.008      19362.509      45.84327     
    573000   323.66978      374.63019      18522.315      19360.048     -396.76679    
    574000   298.50249      370.38802      18543.534      19341.016     -610.93189    
    575000   284.73606      379.04981      18543.416      19329.863     -285.80046    
    576000   296.94572      383.91141      18520.028      19328.806     -57.016728    
    577000   285.11503      366.77186      18551.697      19326.408     -673.13965    
    578000   307.80532      371.53701      18519.356      19331.297     -496.23733    
    579000   313.66759      380.39898      18502.863      19332.054      71.820471    
    580000   300.53843      374.36644      18531.573      19335.946     -416.127      
    581000   311.65302      373.51445      18536.986      19356.41      -486.00551    
    582000   329.14068      369.54967      18539.139      19379.62      -419.64418    
    583000   321.722        380.25116      18541.622      19382.189     -222.85044    
    584000   317.33394      383.22449      18531.86       19369.123     -97.183612    
    585000   300.22936      367.62661      18565.206      19362.398     -703.36217    
    586000   298.85221      373.27822      18539.38       19340.253     -433.48806    
    587000   295.17219      382.01189      18524.188      19328.529     -105.18925    
    588000   287.91932      373.24624      18534.29       19319.488     -486.89304    
    589000   306.33875      373.12145      18520.495      19331.922     -423.34848    
    590000   297.02869      377.86583      18532.122      19334.974     -323.91282    
    591000   295.42445      372.41244      18541.384      19336.487     -547.48713    
    592000   307.68045      380.40717      18526.016      19346.649     -172.17783    
    593000   307.77087      374.28821      18535.53       19350.173     -465.42524    
    594000   308.13582      374.11096      18549.963      19364.951     -507.1404     
    595000   304.50725      384.39675      18558.553      19378.635     -164.97427    
    596000   317.0927       370.52593      18558.861      19383.08      -623.86068    
    597000   315.05928      375.70304      18532.289      19358.775     -431.12449    
    598000   315.41958      379.70829      18509.622      19340.629     -159.86456    
    599000   296.20645      372.98969      18525.784      19322.582     -434.70773    
    600000   293.80367      373.7615       18525.402      19319.535     -382.14922    
    601000   298.24745      379.11043      18514.612      19320.451     -106.01026    
    602000   293.5994       373.81101      18521.946      19315.835     -500.98528    
    603000   291.16218      375.58762      18537.081      19329.26      -280.91048    
    604000   313.7305       375.07216      18516.665      19340.619     -319.92765    
    605000   309.7724       373.53811      18537.795      19354.552     -371.07829    
    606000   310.1993       387.37992      18533.407      19364.617      89.110347    
    607000   321.10108      373.41701      18544.83       19377.675     -470.99459    
    608000   317.7439       372.41953      18550.72       19377.764     -468.10428    
    609000   318.78473      386.00028      18507.297      19349.411      103.87922    
    610000   304.27422      373.46057      18516.796      19325.609     -441.87173    
    611000   300.61669      373.18233      18511.11       19314.411     -459.84256    
    612000   289.71084      377.6472       18524.086      19316.248     -310.20686    
    613000   287.82843      372.54638      18530.602      19314.97      -524.8821     
    614000   297.14325      374.52712      18522.199      19321.876     -467.11921    
    615000   298.3899       378.25066      18526.142      19331.325     -138.6349     
    616000   309.4525       372.36897      18533.17       19348.301     -432.12085    
    617000   314.9095       378.51008      18526.185      19355.264     -265.38955    
    618000   302.494        381.54167      18545.904      19360.251     -295.91029    
    619000   305.29666      373.80205      18555.27       19365.888     -485.47221    
    620000   322.23573      377.21038      18511.168      19349.429     -174.76029    
Loop time of 12.4324 on 4 procs for 50000 steps with 481 atoms

Performance: 17.374 ns/day, 1.381 hours/ns, 4021.741 timesteps/s, 1.934 Matom-step/s
99.6% CPU use with 4 MPI tasks x no OpenMP threads

MPI task timing breakdown:
Section |  min time  |  avg time  |  max time  |%varavg| %total
---------------------------------------------------------------
Pair    | 1.714      | 3.0715     | 4.215      |  51.1 | 24.71
Bond    | 3.9738     | 4.3988     | 4.8962     |  17.8 | 35.38
Neigh   | 0.085935   | 0.085959   | 0.085976   |   0.0 |  0.69
Comm    | 2.6944     | 4.354      | 5.5187     |  49.7 | 35.02
Output  | 0.0014301  | 0.0019717  | 0.0021843  |   0.7 |  0.02
Modify  | 0.32454    | 0.34542    | 0.36699    |   3.3 |  2.78
Other   |            | 0.1747     |            |       |  1.41

Nlocal:         120.25 ave         129 max         111 min
Histogram: 1 0 1 0 0 0 0 0 1 1
Nghost:        4157.75 ave        4193 max        4126 min
Histogram: 1 0 1 0 0 1 0 0 0 1
Neighs:              0 ave           0 max           0 min
Histogram: 4 0 0 0 0 0 0 0 0 0

Total # of neighbors = 0
Ave neighs/atom = 0
Ave special neighs/atom = 15.567568
Neighbor list builds = 96
Dangerous builds = 0
unfix           myat1
next            cpt
jump            SELF loop
variable        zdes equal  -15+0.30*(${cpt}-1)
variable        zdes equal  -15+0.30*(11-1)
fix             mytth2 H2 spring tether ${k1} 5 5 ${zdes} 0
fix             mytth2 H2 spring tether 0.5 5 5 ${zdes} 0
fix             mytth2 H2 spring tether 0.5 5 5 -12 0
run             10000
Generated 0 of 1 mixed pair_coeff terms from geometric mixing rule
Per MPI rank memory allocation (min/avg/max) = 14.61 | 14.61 | 14.61 Mbytes
   Step          Temp          E_pair         E_mol          TotEng         Press     
    620000   322.23573      377.21038      18511.168      19349.429     -174.76029    
    621000   293.74387      372.09597      18533.686      19326.067     -616.73672    
    622000   297.66009      373.77262      18508.588      19308.249     -229.46653    
    623000   298.5966       372.15402      18506.132      19305.515     -490.55158    
    624000   296.0511       371.13733      18513.547      19308.271     -590.76725    
    625000   290.06084      374.23601      18517.808      19307.06      -305.22488    
    626000   305.92584      373.49105      18511.047      19322.253     -373.19518    
    627000   303.22379      372.65399      18529.467      19335.971     -471.54674    
    628000   301.36445      377.35156      18539.071      19347.611     -449.35816    
    629000   297.39312      377.29125      18549.609      19352.407     -340.83503    
    630000   296.41472      369.03455      18555.878      19349.02      -465.3635     
Loop time of 2.48775 on 4 procs for 10000 steps with 481 atoms

Performance: 17.365 ns/day, 1.382 hours/ns, 4019.689 timesteps/s, 1.933 Matom-step/s
99.7% CPU use with 4 MPI tasks x no OpenMP threads

MPI task timing breakdown:
Section |  min time  |  avg time  |  max time  |%varavg| %total
---------------------------------------------------------------
Pair    | 0.34648    | 0.61276    | 0.84472    |  22.8 | 24.63
Bond    | 0.7858     | 0.88069    | 0.98822    |   8.7 | 35.40
Neigh   | 0.0098327  | 0.0098337  | 0.0098357  |   0.0 |  0.40
Comm    | 0.54198    | 0.87981    | 1.0959     |  22.2 | 35.37
Output  | 0.00026504 | 0.00029906 | 0.00036692 |   0.0 |  0.01
Modify  | 0.067644   | 0.069434   | 0.071114   |   0.6 |  2.79
Other   |            | 0.03492    |            |       |  1.40

Nlocal:         120.25 ave         127 max         113 min
Histogram: 1 1 0 0 0 0 0 0 0 2
Nghost:         4164.5 ave        4192 max        4137 min
Histogram: 1 0 1 0 0 0 0 1 0 1
Neighs:              0 ave           0 max           0 min
Histogram: 4 0 0 0 0 0 0 0 0 0

Total # of neighbors = 0
Ave neighs/atom = 0
Ave special neighs/atom = 15.567568
Neighbor list builds = 11
Dangerous builds = 0
fix             myat1 all ave/time 100 10 1000 v_zave v_zdes file simulation_data/abpot/${cpt}.dat
fix             myat1 all ave/time 100 10 1000 v_zave v_zdes file simulation_data/abpot/11.dat
run             50000
Generated 0 of 1 mixed pair_coeff terms from geometric mixing rule
Per MPI rank memory allocation (min/avg/max) = 14.61 | 14.61 | 14.61 Mbytes
   Step          Temp          E_pair         E_mol          TotEng         Press     
    630000   296.41472      369.03455      18555.878      19349.02      -465.3635     
    631000   301.18309      374.2507       18537.282      19342.462     -330.66302    
    632000   303.32816      377.04596      18528.173      19339.217     -284.59175    
    633000   289.83827      373.32127      18553.213      19341.231     -419.76567    
    634000   287.09858      374.43794      18545.1        19330.315     -446.32393    
    635000   299.70025      372.23883      18526.838      19327.885     -432.26501    
    636000   287.92424      382.13635      18531.058      19325.153     -207.54629    
    637000   296.75864      371.15859      18525.261      19321.019     -473.84322    
    638000   289.2832       371.19752      18538.837      19323.938     -539.82959    
    639000   306.59837      381.60938      18501.964      19322.251     -63.459088    
    640000   311.92264      375.06281      18510.522      19331.88      -256.92389    
    641000   307.97529      377.00371      18531.022      19348.673     -261.34556    
    642000   307.74349      371.56113      18541.728      19353.606     -434.18845    
    643000   322.34749      377.74556      18519.204      19358.161     -315.18049    
    644000   302.94983      376.69681      18544.653      19354.807     -304.53031    
    645000   307.01398      374.68998      18539.231      19353.193     -412.8566     
    646000   297.69643      370.37659      18534.223      19330.541     -532.49686    
    647000   289.48031      374.75308      18522.258      19311.196     -255.61158    
    648000   282.30613      374.41133      18525.145      19303.477     -588.75045    
    649000   297.62836      369.78398      18512.796      19308.423     -260.3465     
    650000   290.59595      373.54527      18523.639      19312.966     -459.17009    
    651000   304.14533      375.07887      18509.143      19319.389     -193.16593    
    652000   307.43927      369.57393      18510.628      19320.083     -413.8021     
    653000   304.02371      375.85989      18523.511      19334.364     -333.73589    
    654000   296.2624       372.97467      18540.186      19337.049     -296.36756    
    655000   315.53694      372.69556      18513.462      19337.624     -473.25085    
    656000   297.29808      379.80092      18533.418      19338.59      -214.56824    
    657000   312.07655      372.97216      18507.999      19327.487     -376.96433    
    658000   284.62319      372.44045      18552.621      19332.298     -603.22714    
    659000   290.17247      384.98595      18526.813      19326.974      64.524953    
    660000   291.41592      370.29072      18534.089      19321.334     -598.9072     
    661000   293.70738      367.39914      18534.562      19322.194     -534.89464    
    662000   294.36933      383.34026      18509.162      19313.682      114.51646    
    663000   285.13949      371.19866      18532.762      19311.935     -638.82047    
    664000   300.85353      376.04785      18516.367      19322.873     -287.16332    
    665000   299.93367      373.48398      18536.814      19339.439     -316.26495    
    666000   303.41253      372.84922      18544.138      19351.106     -461.29709    
    667000   292.56634      382.69744      18557.55       19358.848     -137.54361    
    668000   309.75148      372.31569      18545.349      19360.853     -495.74187    
    669000   309.46872      369.62047      18542.574      19354.979     -637.63316    
    670000   307.58138      382.05397      18518.783      19340.921     -137.5902     
    671000   290.27749      373.87346      18519.71       19308.91      -546.73182    
    672000   287.78003      373.04566      18519.353      19304.151     -470.90793    
    673000   305.51391      374.26967      18495.131      19306.527     -283.61974    
    674000   284.2816       370.65759      18528.755      19306.159     -653.62864    
    675000   291.08005      376.30797      18532.474      19325.256     -299.59501    
    676000   290.76901      377.94553      18534.659      19328.633     -466.65093    
    677000   296.58764      368.69013      18546.9        19339.944     -645.97275    
    678000   307.50102      381.2727       18525.837      19347.078     -152.82177    
    679000   290.22487      372.60329      18553.995      19341.849     -565.24578    
    680000   310.43333      375.91468      18530.216      19350.295     -444.80718    
Loop time of 12.5087 on 4 procs for 50000 steps with 481 atoms

Performance: 17.268 ns/day, 1.390 hours/ns, 3997.232 timesteps/s, 1.923 Matom-step/s
99.1% CPU use with 4 MPI tasks x no OpenMP threads

MPI task timing breakdown:
Section |  min time  |  avg time  |  max time  |%varavg| %total
---------------------------------------------------------------
Pair    | 1.7233     | 3.0786     | 4.2205     |  51.0 | 24.61
Bond    | 3.9841     | 4.4114     | 4.9067     |  17.8 | 35.27
Neigh   | 0.05216    | 0.052174   | 0.052184   |   0.0 |  0.42
Comm    | 2.7894     | 4.4269     | 5.5619     |  48.6 | 35.39
Output  | 0.0015215  | 0.0020556  | 0.0022689  |   0.7 |  0.02
Modify  | 0.35643    | 0.35883    | 0.3619     |   0.4 |  2.87
Other   |            | 0.1787     |            |       |  1.43

Nlocal:         120.25 ave         129 max         111 min
Histogram: 1 0 1 0 0 0 0 0 1 1
Nghost:        4153.25 ave        4182 max        4128 min
Histogram: 1 1 0 0 0 0 0 1 0 1
Neighs:              0 ave           0 max           0 min
Histogram: 4 0 0 0 0 0 0 0 0 0

Total # of neighbors = 0
Ave neighs/atom = 0
Ave special neighs/atom = 15.567568
Neighbor list builds = 58
Dangerous builds = 0
unfix           myat1
next            cpt
jump            SELF loop
variable        zdes equal  -15+0.30*(${cpt}-1)
variable        zdes equal  -15+0.30*(12-1)
fix             mytth2 H2 spring tether ${k1} 5 5 ${zdes} 0
fix             mytth2 H2 spring tether 0.5 5 5 ${zdes} 0
fix             mytth2 H2 spring tether 0.5 5 5 -11.7 0
run             10000
Generated 0 of 1 mixed pair_coeff terms from geometric mixing rule
Per MPI rank memory allocation (min/avg/max) = 14.61 | 14.61 | 14.61 Mbytes
   Step          Temp          E_pair         E_mol          TotEng         Press     
    680000   310.43333      375.91468      18530.216      19350.295     -444.80718    
    681000   313.04531      377.1831       18519.383      19344.468     -384.61973    
    682000   307.08365      377.19796      18518.354      19334.924     -539.86926    
    683000   291.13245      381.7006       18529.868      19328.117     -224.81365    
    684000   286.35153      371.46151      18519.928      19301.098     -503.96115    
    685000   284.12584      377.63152      18490.446      19274.601     -324.83935    
    686000   276.7554       377.01959      18497.383      19270.381     -289.49985    
    687000   288.44387      376.24188      18494.967      19283.911     -334.12966    
    688000   295.28431      372.02062      18509.354      19303.864     -468.1932     
    689000   291.98666      374.32087      18526.6        19318.692     -339.10754    
    690000   295.80861      380.90007      18524.052      19328.191     -151.73198    
Loop time of 2.50894 on 4 procs for 10000 steps with 481 atoms

Performance: 17.218 ns/day, 1.394 hours/ns, 3985.753 timesteps/s, 1.917 Matom-step/s
99.6% CPU use with 4 MPI tasks x no OpenMP threads

MPI task timing breakdown:
Section |  min time  |  avg time  |  max time  |%varavg| %total
---------------------------------------------------------------
Pair    | 0.3468     | 0.61947    | 0.85433    |  23.1 | 24.69
Bond    | 0.78536    | 0.8813     | 0.99134    |   8.8 | 35.13
Neigh   | 0.012654   | 0.012658   | 0.012661   |   0.0 |  0.50
Comm    | 0.54449    | 0.89117    | 1.1176     |  22.6 | 35.52
Output  | 0.00026758 | 0.00029489 | 0.00036525 |   0.0 |  0.01
Modify  | 0.066396   | 0.06857    | 0.070747   |   0.7 |  2.73
Other   |            | 0.03548    |            |       |  1.41

Nlocal:         120.25 ave         129 max         112 min
Histogram: 2 0 0 0 0 0 0 0 0 2
Nghost:        4166.75 ave        4191 max        4142 min
Histogram: 2 0 0 0 0 0 0 0 0 2
Neighs:              0 ave           0 max           0 min
Histogram: 4 0 0 0 0 0 0 0 0 0

Total # of neighbors = 0
Ave neighs/atom = 0
Ave special neighs/atom = 15.567568
Neighbor list builds = 14
Dangerous builds = 0
fix             myat1 all ave/time 100 10 1000 v_zave v_zdes file simulation_data/abpot/${cpt}.dat
fix             myat1 all ave/time 100 10 1000 v_zave v_zdes file simulation_data/abpot/12.dat
run             50000
Generated 0 of 1 mixed pair_coeff terms from geometric mixing rule
Per MPI rank memory allocation (min/avg/max) = 14.61 | 14.61 | 14.61 Mbytes
   Step          Temp          E_pair         E_mol          TotEng         Press     
    690000   295.80861      380.90007      18524.052      19328.191     -151.73198    
    691000   308.0835       372.65894      18526.566      19340.028     -419.78653    
    692000   294.27694      373.75579      18555.408      19350.212     -455.45244    
    693000   308.26739      376.5432       18535.455      19353.063     -288.9756     
    694000   315.77619      377.88136      18517.482      19347.172     -323.52226    
    695000   314.1879       374.81932      18527.623      19351.979     -258.66151    
    696000   298.7164       369.85108      18542.577      19339.829     -513.85696    
    697000   289.54381      373.26203      18524.997      19312.535     -473.20702    
    698000   298.5652       379.34489      18495.304      19301.832     -111.37614    
    699000   285.06873      375.34888      18516.733      19299.956     -156.71682    
    700000   284.33959      358.95069      18534.621      19300.401     -805.6607     
    701000   298.03666      378.18859      18509.559      19314.175     -99.185585    
    702000   302.14146      380.56147      18517.333      19330.195     -97.55796     
    703000   310.32435      368.88317      18535.658      19348.55      -590.44278    
    704000   295.89553      371.78372      18547.841      19342.988     -538.25946    
    705000   291.31292      377.16635      18541.209      19335.182     -283.27382    
    706000   305.57549      385.08852      18520.419      19342.722     -78.55341     
    707000   297.25153      370.35224      18547.119      19342.776     -570.30958    
    708000   288.68683      369.10107      18557.446      19339.597     -598.31634    
    709000   294.69558      382.70112      18515.162      19319.511     -118.48901    
    710000   305.97096      379.59843      18503.359      19320.737     -171.1818     
    711000   289.93585      365.34974      18531.785      19311.972     -688.02828    
    712000   293.49674      371.04628      18512.624      19303.602     -567.3409     
    713000   289.70568      382.05039      18499.387      19295.945     -153.74823    
    714000   277.26805      379.48911      18525.791      19301.992     -229.28977    
    715000   296.51167      368.24062      18536.659      19329.145     -548.98598    
    716000   296.69766      372.59622      18543.742      19340.849     -493.7986     
    717000   301.81759      384.67547      18532.692      19349.205     -15.205563    
    718000   311.39415      376.02271      18531.381      19352.943     -254.37165    
    719000   302.5651       367.14326      18555.128      19355.178     -666.08898    
    720000   308.43481      374.11062      18538.275      19353.69      -337.90196    
    721000   287.55847      381.79895      18539.816      19333.05      -67.083627    
    722000   293.36362      378.066        18521.85       19319.658     -239.28827    
    723000   292.19121      361.54648      18533.449      19313.06      -762.19207    
    724000   282.17015      374.30665      18523.591      19301.623     -394.27926    
    725000   289.30686      380.91489      18499.81       19294.662      2.3642766    
    726000   283.4493       368.82163      18532.142      19306.519     -514.10917    
    727000   290.51536      364.99079      18540.455      19321.112     -630.44077    
    728000   292.91753      379.50482      18539.923      19338.531     -71.901058    
    729000   317.50383      383.33871      18525.545      19363.165     -73.937323    
    730000   296.98978      368.55998      18574.66       19368.15      -499.03238    
    731000   308.11241      369.74146      18561.032      19371.617     -470.06348    
    732000   312.14032      379.47556      18533.499      19359.581     -265.80384    
    733000   300.3937       380.39835      18540.063      19350.261     -53.278858    
    734000   302.68674      365.40782      18542.88       19341.369     -668.86595    
    735000   289.90753      370.79027      18537.975      19323.562     -314.84041    
    736000   287.35595      382.1749       18521.08       19314.4        4.7132093    
    737000   301.85194      374.46556      18503.479      19309.831     -392.81248    
    738000   295.24965      366.32461      18528.236      19317.001     -667.55363    
    739000   297.08811      374.85495      18529.165      19329.091     -338.05245    
    740000   301.3643       378.90536      18521.796      19331.89      -171.10507    
Loop time of 12.4239 on 4 procs for 50000 steps with 481 atoms

Performance: 17.386 ns/day, 1.380 hours/ns, 4024.507 timesteps/s, 1.936 Matom-step/s
99.6% CPU use with 4 MPI tasks x no OpenMP threads

MPI task timing breakdown:
Section |  min time  |  avg time  |  max time  |%varavg| %total
---------------------------------------------------------------
Pair    | 1.7154     | 3.071      | 4.2199     |  51.2 | 24.72
Bond    | 3.9642     | 4.4021     | 4.8963     |  18.0 | 35.43
Neigh   | 0.061319   | 0.061343   | 0.061364   |   0.0 |  0.49
Comm    | 2.7199     | 4.3669     | 5.4968     |  49.1 | 35.15
Output  | 0.0014463  | 0.0019783  | 0.0021881  |   0.7 |  0.02
Modify  | 0.33951    | 0.34575    | 0.35283    |   0.9 |  2.78
Other   |            | 0.1748     |            |       |  1.41

Nlocal:         120.25 ave         127 max         113 min
Histogram: 1 0 1 0 0 0 0 1 0 1
Nghost:         4182.5 ave        4202 max        4161 min
Histogram: 2 0 0 0 0 0 0 0 0 2
Neighs:              0 ave           0 max           0 min
Histogram: 4 0 0 0 0 0 0 0 0 0

Total # of neighbors = 0
Ave neighs/atom = 0
Ave special neighs/atom = 15.567568
Neighbor list builds = 68
Dangerous builds = 0
unfix           myat1
next            cpt
jump            SELF loop
variable        zdes equal  -15+0.30*(${cpt}-1)
variable        zdes equal  -15+0.30*(13-1)
fix             mytth2 H2 spring tether ${k1} 5 5 ${zdes} 0
fix             mytth2 H2 spring tether 0.5 5 5 ${zdes} 0
fix             mytth2 H2 spring tether 0.5 5 5 -11.4 0
run             10000
Generated 0 of 1 mixed pair_coeff terms from geometric mixing rule
Per MPI rank memory allocation (min/avg/max) = 14.61 | 14.61 | 14.61 Mbytes
   Step          Temp          E_pair         E_mol          TotEng         Press     
    740000   301.3643       378.90536      18521.796      19331.89      -171.10507    
    741000   309.34529      377.01669      18518.178      19337.802     -222.48481    
    742000   301.41416      367.04524      18546.907      19345.212     -606.33555    
    743000   306.85476      377.42197      18526.251      19342.718     -159.44619    
    744000   302.78225      378.94204      18525.701      19337.86      -48.679979    
    745000   292.16038      372.5475       18549.225      19339.792     -431.21197    
    746000   299.06244      370.42085      18535.487      19333.803     -476.05972    
    747000   297.89422      379.28858      18534.039      19339.551     -166.77069    
    748000   300.87823      377.37389      18529.961      19337.828     -149.86747    
    749000   296.3563       372.0601       18543.535      19339.619     -381.65562    
    750000   298.21967      366.79731      18542.888      19336.375     -642.97024    
Loop time of 2.49254 on 4 procs for 10000 steps with 481 atoms

Performance: 17.332 ns/day, 1.385 hours/ns, 4011.965 timesteps/s, 1.930 Matom-step/s
99.6% CPU use with 4 MPI tasks x no OpenMP threads

MPI task timing breakdown:
Section |  min time  |  avg time  |  max time  |%varavg| %total
---------------------------------------------------------------
Pair    | 0.34634    | 0.61322    | 0.84522    |  22.8 | 24.60
Bond    | 0.79324    | 0.88011    | 0.98181    |   8.4 | 35.31
Neigh   | 0.010767   | 0.010775   | 0.010782   |   0.0 |  0.43
Comm    | 0.54717    | 0.88426    | 1.1051     |  22.0 | 35.48
Output  | 0.00025409 | 0.00028928 | 0.00036517 |   0.0 |  0.01
Modify  | 0.06492    | 0.06877    | 0.072542   |   1.3 |  2.76
Other   |            | 0.03512    |            |       |  1.41

Nlocal:         120.25 ave         129 max         111 min
Histogram: 1 1 0 0 0 0 0 0 1 1
Nghost:        4159.25 ave        4183 max        4133 min
Histogram: 1 1 0 0 0 0 0 0 0 2
Neighs:              0 ave           0 max           0 min
Histogram: 4 0 0 0 0 0 0 0 0 0

Total # of neighbors = 0
Ave neighs/atom = 0
Ave special neighs/atom = 15.567568
Neighbor list builds = 12
Dangerous builds = 0
fix             myat1 all ave/time 100 10 1000 v_zave v_zdes file simulation_data/abpot/${cpt}.dat
fix             myat1 all ave/time 100 10 1000 v_zave v_zdes file simulation_data/abpot/13.dat
run             50000
Generated 0 of 1 mixed pair_coeff terms from geometric mixing rule
Per MPI rank memory allocation (min/avg/max) = 14.61 | 14.61 | 14.61 Mbytes
   Step          Temp          E_pair         E_mol          TotEng         Press     
    750000   298.21967      366.79731      18542.888      19336.375     -642.97024    
    751000   303.81177      379.01473      18527.892      19341.598     -125.0552     
    752000   308.51707      377.15982      18532.176      19350.759     -175.76589    
    753000   299.62139      366.6457       18559.611      19354.951     -747.89943    
    754000   324.06659      372.11574      18525.651      19361.438     -405.56867    
    755000   295.28566      380.1896       18540.029      19342.71      -308.73422    
    756000   309.3846       377.27059      18526.021      19345.955     -289.87369    
    757000   305.5701       365.05229      18532.375      19334.634     -725.12421    
    758000   275.51785      372.77863      18554.503      19321.489     -455.70107    
    759000   282.52165      382.77277      18519.062      19306.063     -138.44021    
    760000   286.5197       373.27482      18521.8        19305.024     -421.54946    
    761000   282.39925      369.23982      18538.508      19311.802     -845.42341    
    762000   285.62354      376.1165       18551.854      19336.638     -339.56187    
    763000   302.72604      381.35904      18538.886      19353.382     -178.64034    
    764000   298.56046      374.58274      18562.459      19364.218     -360.6236     
    765000   293.70198      368.58603      18581.954      19370.765     -565.97688    
    766000   307.89525      381.02954      18542.223      19363.785     -270.71393    
    767000   305.80637      378.21756      18530.265      19346.027     -235.49247    
    768000   282.9599       375.01614      18554.679      19334.551     -370.84861    
    769000   294.50856      370.05719      18537.213      19328.649     -595.33056    
    770000   294.62104      377.159        18523.011      19321.71      -118.18904    
    771000   294.77344      374.3118       18523.745      19319.816     -282.19067    
    772000   311.67258      375.06844      18507.519      19328.525     -309.7942     
    773000   308.84775      369.9429       18547.991      19359.83      -464.19297    
    774000   304.98594      379.31108      18560.538      19376.219     -270.9668     
    775000   311.12437      378.99966      18559.212      19383.364     -257.07193    
    776000   311.35192      368.79504      18567.577      19381.851     -694.15211    
    777000   313.84399      376.80656      18534.699      19360.55      -399.00956    
    778000   305.12899      378.68546      18524.942      19340.202     -183.97762    
    779000   298.52457      376.93942      18533.82       19337.886     -433.97352    
    780000   283.59454      370.94909      18556.826      19333.539     -470.76819    
    781000   283.72127      375.4383       18542.23       19323.614     -502.34438    
    782000   298.69451      380.79645      18519.911      19328.076     -190.10723    
    783000   293.4913       377.05773      18537.369      19334.351     -430.53922    
    784000   303.93283      364.83432      18547.767      19347.465     -658.21408    
    785000   311.17708      379.55424      18542.385      19367.168     -267.20814    
    786000   320.37027      384.29767      18548.776      19391.456     -60.601371    
    787000   318.70531      366.40767      18568.971      19391.378     -642.88565    
    788000   320.16372      371.28776      18554.844      19384.219     -527.60953    
    789000   315.57968      381.33638      18539.981      19372.846     -214.56052    
    790000   313.20135      380.81974      18525.997      19354.942     -156.84418    
    791000   291.72528      368.53541      18565.245      19351.178     -622.7007     
    792000   301.08175      376.23794      18528.442      19335.464     -312.19271    
    793000   294.27651      378.78246      18528.289      19328.119     -259.44017    
    794000   292.15153      378.40693      18526.935      19323.35      -185.86244    
    795000   305.97325      366.33139      18523.884      19327.999     -716.64695    
    796000   281.45858      373.99571      18547.759      19324.463     -512.12375    
    797000   274.18564      380.58911      18546.805      19319.696     -213.26714    
    798000   301.19074      376.36405      18536.296      19343.6       -387.06265    
    799000   306.87833      371.75612      18555.746      19366.58      -507.997      
    800000   305.04436      372.16227      18567.91       19376.527     -379.07534    
Loop time of 12.4589 on 4 procs for 50000 steps with 481 atoms

Performance: 17.337 ns/day, 1.384 hours/ns, 4013.205 timesteps/s, 1.930 Matom-step/s
99.6% CPU use with 4 MPI tasks x no OpenMP threads

MPI task timing breakdown:
Section |  min time  |  avg time  |  max time  |%varavg| %total
---------------------------------------------------------------
Pair    | 1.7102     | 3.0721     | 4.2267     |  51.4 | 24.66
Bond    | 3.9376     | 4.401      | 4.9174     |  18.5 | 35.32
Neigh   | 0.075026   | 0.075088   | 0.075146   |   0.0 |  0.60
Comm    | 2.7279     | 4.3881     | 5.5245     |  49.6 | 35.22
Output  | 0.0014205  | 0.0019441  | 0.0021465  |   0.7 |  0.02
Modify  | 0.33421    | 0.34593    | 0.35655    |   1.6 |  2.78
Other   |            | 0.1747     |            |       |  1.40

Nlocal:         120.25 ave         124 max         116 min
Histogram: 1 1 0 0 0 0 0 0 0 2
Nghost:        4168.25 ave        4189 max        4148 min
Histogram: 2 0 0 0 0 0 0 0 1 1
Neighs:              0 ave           0 max           0 min
Histogram: 4 0 0 0 0 0 0 0 0 0

Total # of neighbors = 0
Ave neighs/atom = 0
Ave special neighs/atom = 15.567568
Neighbor list builds = 84
Dangerous builds = 0
unfix           myat1
next            cpt
jump            SELF loop
variable        zdes equal  -15+0.30*(${cpt}-1)
variable        zdes equal  -15+0.30*(14-1)
fix             mytth2 H2 spring tether ${k1} 5 5 ${zdes} 0
fix             mytth2 H2 spring tether 0.5 5 5 ${zdes} 0
fix             mytth2 H2 spring tether 0.5 5 5 -11.1 0
run             10000
Generated 0 of 1 mixed pair_coeff terms from geometric mixing rule
Per MPI rank memory allocation (min/avg/max) = 14.61 | 14.61 | 14.61 Mbytes
   Step          Temp          E_pair         E_mol          TotEng         Press     
    800000   305.04436      372.16227      18567.91       19376.527     -379.07534    
    801000   306.9903       380.37629      18557.308      19376.923     -318.07147    
    802000   321.76132      379.73547      18521.857      19361.965     -180.80583    
    803000   308.00275      371.97147      18541.437      19354.095     -435.96872    
    804000   296.87837      370.33264      18542.606      19337.709     -546.53863    
    805000   295.74081      376.28753      18528.741      19328.171     -318.85952    
    806000   285.48483      380.1374       18536.8        19325.406     -264.66533    
    807000   305.57925      368.87861      18525.126      19331.224     -645.29648    
    808000   304.81393      371.2264       18528.357      19335.708     -462.03142    
    809000   296.79135      382.35735      18527.763      19334.766      40.487703    
    810000   293.73927      372.33033      18551.055      19343.664     -455.78212    
Loop time of 2.49044 on 4 procs for 10000 steps with 481 atoms

Performance: 17.346 ns/day, 1.384 hours/ns, 4015.359 timesteps/s, 1.931 Matom-step/s
99.6% CPU use with 4 MPI tasks x no OpenMP threads

MPI task timing breakdown:
Section |  min time  |  avg time  |  max time  |%varavg| %total
---------------------------------------------------------------
Pair    | 0.34474    | 0.61854    | 0.85009    |  23.1 | 24.84
Bond    | 0.79223    | 0.87944    | 0.97808    |   8.0 | 35.31
Neigh   | 0.01523    | 0.015237   | 0.015242   |   0.0 |  0.61
Comm    | 0.54673    | 0.87538    | 1.1024     |  22.0 | 35.15
Output  | 0.00026171 | 0.00029056 | 0.00036533 |   0.0 |  0.01
Modify  | 0.064782   | 0.066375   | 0.068028   |   0.5 |  2.67
Other   |            | 0.03517    |            |       |  1.41

Nlocal:         120.25 ave         128 max         113 min
Histogram: 2 0 0 0 0 0 0 0 1 1
Nghost:         4164.5 ave        4186 max        4140 min
Histogram: 1 1 0 0 0 0 0 0 0 2
Neighs:              0 ave           0 max           0 min
Histogram: 4 0 0 0 0 0 0 0 0 0

Total # of neighbors = 0
Ave neighs/atom = 0
Ave special neighs/atom = 15.567568
Neighbor list builds = 17
Dangerous builds = 0
fix             myat1 all ave/time 100 10 1000 v_zave v_zdes file simulation_data/abpot/${cpt}.dat
fix             myat1 all ave/time 100 10 1000 v_zave v_zdes file simulation_data/abpot/14.dat
run             50000
Generated 0 of 1 mixed pair_coeff terms from geometric mixing rule
Per MPI rank memory allocation (min/avg/max) = 14.61 | 14.61 | 14.61 Mbytes
   Step          Temp          E_pair         E_mol          TotEng         Press     
    810000   293.73927      372.33033      18551.055      19343.664     -455.78212    
    811000   302.45959      369.59589      18547.377      19349.729     -618.86685    
    812000   305.45528      374.84112      18553.366      19365.249     -400.01148    
    813000   325.59731      379.86636      18533.047      19378.774     -110.09666    
    814000   313.39606      374.45529      18564.568      19387.427     -461.85464    
    815000   318.76126      373.21572      18558.338      19387.634     -518.34235    
    816000   324.7914       380.57683      18520.545      19365.83      -123.08154    
    817000   295.81908      373.48597      18544.887      19341.628     -387.29973    
    818000   275.397        373.66077      18562.794      19330.489     -512.25764    
    819000   311.81508      374.01609      18511.766      19331.923     -536.67031    
    820000   308.20224      373.79097      18512.938      19327.702     -172.21114    
    821000   289.77193      375.09532      18536.669      19326.367     -370.27255    
    822000   288.04469      367.25968      18555.704      19335.095     -723.03647    
    823000   293.7007       376.00269      18541.826      19338.052     -391.20526    
    824000   300.64699      375.22669      18545.63       19351.019     -502.47097    
    825000   312.11789      374.77492      18553.038      19374.388     -326.74443    
    826000   319.66909      372.35559      18551.155      19380.89      -461.2616     
    827000   320.252        373.66343      18550.365      19382.241     -411.77122    
    828000   307.28726      376.63221      18554.753      19371.048     -278.1021     
    829000   296.65066      376.30554      18538.344      19339.094     -407.98131    
    830000   290.03706      369.31215      18543.075      19327.369     -427.98829    
    831000   266.5859       373.26282      18569.704      19324.395     -624.66198    
    832000   299.30568      379.7327       18518.305      19326.281     -109.30024    
    833000   309.19913      374.86102      18509.63       19326.89      -285.06087    
    834000   296.28379      370.2726       18546.828      19341.02      -326.40556    
    835000   301.79058      372.32973      18548.45       19352.578     -314.70824    
    836000   300.99947      380.20475      18545.91       19356.781     -160.26256    
    837000   312.55771      372.42171      18545.554      19365.18      -351.86071    
    838000   326.61333      375.19667      18534.277      19376.788     -405.14729    
    839000   308.4247       370.82807      18548.318      19360.437     -499.52141    
    840000   297.80949      379.7935       18528.78       19334.676     -222.17397    
    841000   306.29582      375.57552      18506.795      19320.616     -348.78999    
    842000   298.64782      368.56606      18514.409      19310.277     -491.1111     
    843000   281.55592      380.37249      18518.974      19302.194     -304.56583    
    844000   289.638        374.24671      18521.07       19309.727     -395.69933    
    845000   301.92559      375.60485      18520.311      19327.908     -435.30448    
    846000   311.30518      374.39009      18516.239      19336.041     -357.22178    
    847000   309.83645      374.07087      18533.673      19351.054     -418.68225    
    848000   299.24726      376.61615      18548.508      19353.284     -400.97007    
    849000   289.49332      373.47344      18567.323      19355.001     -326.07813    
    850000   299.62675      370.57391      18550.476      19349.753     -587.47351    
    851000   293.02382      379.74954      18522.435      19321.44      -36.430161    
    852000   283.51603      370.57813      18520.156      19296.385     -505.11489    
    853000   272.95576      375.17087      18528.308      19294.021     -477.39075    
    854000   268.2202       378.95419      18535.722      19298.443     -178.99829    
    855000   282.56498      371.93957      18535.977      19312.207     -602.66497    
    856000   306.82524      374.8614       18516.138      19330.002     -202.45009    
    857000   315.97615      370.25587      18513.296      19335.647     -427.23758    
    858000   309.85712      376.1139       18528.21       19347.664     -274.0459     
    859000   300.86392      376.62512      18546.992      19354.09      -194.85678    
    860000   325.57662      369.28699      18510.288      19345.407     -566.82748    
Loop time of 12.9176 on 4 procs for 50000 steps with 481 atoms

Performance: 16.721 ns/day, 1.435 hours/ns, 3870.683 timesteps/s, 1.862 Matom-step/s
98.3% CPU use with 4 MPI tasks x no OpenMP threads

MPI task timing breakdown:
Section |  min time  |  avg time  |  max time  |%varavg| %total
---------------------------------------------------------------
Pair    | 1.7487     | 3.1525     | 4.3223     |  52.1 | 24.40
Bond    | 4.0359     | 4.4708     | 4.9591     |  17.4 | 34.61
Neigh   | 0.052038   | 0.052146   | 0.052252   |   0.0 |  0.40
Comm    | 2.9883     | 4.6376     | 5.8232     |  48.5 | 35.90
Output  | 0.0018032  | 0.0026976  | 0.0030209  |   1.0 |  0.02
Modify  | 0.40067    | 0.40904    | 0.41638    |   1.0 |  3.17
Other   |            | 0.1928     |            |       |  1.49

Nlocal:         120.25 ave         127 max         114 min
Histogram: 2 0 0 0 0 0 0 0 1 1
Nghost:        4175.75 ave        4198 max        4155 min
Histogram: 2 0 0 0 0 0 0 0 0 2
Neighs:              0 ave           0 max           0 min
Histogram: 4 0 0 0 0 0 0 0 0 0

Total # of neighbors = 0
Ave neighs/atom = 0
Ave special neighs/atom = 15.567568
Neighbor list builds = 57
Dangerous builds = 0
unfix           myat1
next            cpt
jump            SELF loop
variable        zdes equal  -15+0.30*(${cpt}-1)
variable        zdes equal  -15+0.30*(15-1)
fix             mytth2 H2 spring tether ${k1} 5 5 ${zdes} 0
fix             mytth2 H2 spring tether 0.5 5 5 ${zdes} 0
fix             mytth2 H2 spring tether 0.5 5 5 -10.8 0
run             10000
Generated 0 of 1 mixed pair_coeff terms from geometric mixing rule
Per MPI rank memory allocation (min/avg/max) = 14.61 | 14.61 | 14.61 Mbytes
   Step          Temp          E_pair         E_mol          TotEng         Press     
    860000   325.57662      369.28699      18510.288      19345.407     -566.82748    
    861000   308.58722      371.81213      18521.99       19335.325     -411.66274    
    862000   296.12074      378.48982      18511.202      19313.378     -256.30094    
    863000   285.19927      375.68415      18511.32       19295.064     -339.40854    
    864000   288.74765      371.17221      18504.317      19288.626     -547.5666     
    865000   280.10164      375.88785      18515.526      19292.18      -215.37502    
    866000   289.65101      376.87797      18511.733      19303.041     -214.59079    
    867000   312.26343      371.68309      18494.976      19313.442     -413.47009    
    868000   318.98828      373.53724      18495.246      19325.188     -293.84734    
    869000   317.22685      374.68619      18503.427      19331.998     -289.06571    
    870000   315.56676      370.73299      18507.651      19329.894     -477.45373    
Loop time of 2.62896 on 4 procs for 10000 steps with 481 atoms

Performance: 16.432 ns/day, 1.461 hours/ns, 3803.787 timesteps/s, 1.830 Matom-step/s
98.3% CPU use with 4 MPI tasks x no OpenMP threads

MPI task timing breakdown:
Section |  min time  |  avg time  |  max time  |%varavg| %total
---------------------------------------------------------------
Pair    | 0.35675    | 0.63722    | 0.87891    |  23.5 | 24.24
Bond    | 0.80669    | 0.90088    | 1.0052     |   8.5 | 34.27
Neigh   | 0.011941   | 0.01195    | 0.011959   |   0.0 |  0.45
Comm    | 0.6114     | 0.95894    | 1.191      |  22.1 | 36.48
Output  | 0.00031104 | 0.00035762 | 0.00046183 |   0.0 |  0.01
Modify  | 0.077882   | 0.079898   | 0.081965   |   0.6 |  3.04
Other   |            | 0.03972    |            |       |  1.51

Nlocal:         120.25 ave         128 max         112 min
Histogram: 2 0 0 0 0 0 0 0 0 2
Nghost:        4163.75 ave        4190 max        4140 min
Histogram: 2 0 0 0 0 0 0 0 1 1
Neighs:              0 ave           0 max           0 min
Histogram: 4 0 0 0 0 0 0 0 0 0

Total # of neighbors = 0
Ave neighs/atom = 0
Ave special neighs/atom = 15.567568
Neighbor list builds = 13
Dangerous builds = 0
fix             myat1 all ave/time 100 10 1000 v_zave v_zdes file simulation_data/abpot/${cpt}.dat
fix             myat1 all ave/time 100 10 1000 v_zave v_zdes file simulation_data/abpot/15.dat
run             50000
Generated 0 of 1 mixed pair_coeff terms from geometric mixing rule
Per MPI rank memory allocation (min/avg/max) = 14.61 | 14.61 | 14.61 Mbytes
   Step          Temp          E_pair         E_mol          TotEng         Press     
    870000   315.56676      370.73299      18507.651      19329.894     -477.45373    
    871000   304.12053      371.67738      18532.574      19339.384     -439.43182    
    872000   302.0706       373.42935      18526.645      19332.274     -514.35643    
    873000   297.50809      377.27631      18526.515      19329.462     -121.31657    
    874000   302.72397      374.63396      18523.807      19331.575     -367.47303    
    875000   302.95349      372.84118      18515.264      19321.568     -336.06161    
    876000   300.69663      373.8411       18512.785      19316.859     -351.75996    
    877000   289.48942      381.07243      18517.715      19312.986     -97.673965    
    878000   279.36623      376.85073      18547.276      19323.841     -346.2662     
    879000   290.45542      374.23663      18529.665      19319.482     -334.01386    
    880000   292.94567      376.43173      18527.647      19323.222     -282.95053    
    881000   299.59933      382.01766      18514.226      19324.907     -28.771165    
    882000   308.27941      375.4566       18511.057      19327.597     -260.87557    
    883000   315.09093      371.56142      18511.718      19334.108     -352.70343    
    884000   329.99279      379.17024      18495.607      19346.927     -190.34075    
    885000   316.99204      381.22627      18509.589      19344.364     -110.19578    
    886000   302.33685      372.53384      18540.128      19345.242     -454.98429    
    887000   321.93269      373.14309      18522.302      19356.063     -360.45914    
    888000   318.59362      377.49179      18504.464      19337.796     -355.64552    
    889000   295.37156      377.56769      18517.875      19318.057     -274.57939    
    890000   284.76591      371.27412      18529.117      19307.831     -654.19176    
    891000   271.62835      370.97756      18543.349      19302.97      -655.31084    
    892000   304.63694      378.43142      18481.566      19295.868     -130.9923     
    893000   284.42578      374.32457      18523.745      19305.023     -405.90974    
    894000   285.876        368.12966      18544.795      19321.953     -591.58593    
    895000   319.12777      375.42121      18507.096      19339.122     -399.79614    
    896000   312.25623      379.3313       18523.435      19349.539     -207.58305    
    897000   314.65986      374.67199      18532.607      19357.491     -371.06372    
    898000   302.94799      372.39101      18546.502      19352.348     -400.46706    
    899000   316.71628      373.31169      18523.236      19349.702     -332.1004     
    900000   305.87473      373.6826       18523.264      19334.589     -405.17245    
    901000   317.93611      379.11913      18485.784      19319.803     -179.82978    
    902000   300.3404       370.52787      18515.294      19315.546     -397.08396    
    903000   291.99491      370.1169       18523.954      19311.854     -440.98592    
    904000   284.18266      383.28306      18516.679      19306.568     -127.6777     
    905000   290.52722      370.96754      18521.206      19307.856     -598.89249    
    906000   294.44727      377.83952      18521.092      19320.224     -256.93268    
    907000   304.98657      372.96117      18527.668      19337         -426.4603     
    908000   312.60221      380.29495      18526.41       19353.973     -164.55579    
    909000   316.43055      372.15044      18535.805      19360.7       -501.01503    
    910000   311.85727      373.02752      18537.343      19356.572     -511.24745    
    911000   314.27014      379.07215      18512.255      19340.981     -257.4789     
    912000   303.7189       371.18573      18514.129      19319.872     -600.52934    
    913000   299.76373      379.01999      18508.645      19316.564     -305.54454    
    914000   275.50403      373.36409      18535.969      19303.521     -657.82839    
    915000   296.64658      374.03334      18509.697      19308.168     -473.35367    
    916000   307.6656       378.73645      18491.537      19310.478     -233.375      
    917000   291.10562      368.27379      18532.773      19317.557     -645.78004    
    918000   304.06722      373.18222      18519.491      19327.729     -482.93746    
    919000   290.03406      381.51248      18535.584      19332.074     -350.86057    
    920000   304.04405      375.32208      18527.646      19337.991     -343.58027    
Loop time of 12.7547 on 4 procs for 50000 steps with 481 atoms

Performance: 16.935 ns/day, 1.417 hours/ns, 3920.125 timesteps/s, 1.886 Matom-step/s
98.8% CPU use with 4 MPI tasks x no OpenMP threads

MPI task timing breakdown:
Section |  min time  |  avg time  |  max time  |%varavg| %total
---------------------------------------------------------------
Pair    | 1.746      | 3.1319     | 4.3004     |  51.8 | 24.55
Bond    | 4.0148     | 4.45       | 4.941      |  18.0 | 34.89
Neigh   | 0.062157   | 0.062165   | 0.062176   |   0.0 |  0.49
Comm    | 2.8851     | 4.5453     | 5.695      |  48.7 | 35.64
Output  | 0.0021508  | 0.0030175  | 0.003358   |   0.9 |  0.02
Modify  | 0.37102    | 0.37423    | 0.37863    |   0.5 |  2.93
Other   |            | 0.1882     |            |       |  1.48

Nlocal:         120.25 ave         126 max         114 min
Histogram: 2 0 0 0 0 0 0 0 0 2
Nghost:           4151 ave        4174 max        4129 min
Histogram: 1 1 0 0 0 0 0 0 1 1
Neighs:              0 ave           0 max           0 min
Histogram: 4 0 0 0 0 0 0 0 0 0

Total # of neighbors = 0
Ave neighs/atom = 0
Ave special neighs/atom = 15.567568
Neighbor list builds = 68
Dangerous builds = 0
unfix           myat1
next            cpt
jump            SELF loop
variable        zdes equal  -15+0.30*(${cpt}-1)
variable        zdes equal  -15+0.30*(16-1)
fix             mytth2 H2 spring tether ${k1} 5 5 ${zdes} 0
fix             mytth2 H2 spring tether 0.5 5 5 ${zdes} 0
fix             mytth2 H2 spring tether 0.5 5 5 -10.5 0
run             10000
Generated 0 of 1 mixed pair_coeff terms from geometric mixing rule
Per MPI rank memory allocation (min/avg/max) = 14.61 | 14.61 | 14.61 Mbytes
   Step          Temp          E_pair         E_mol          TotEng         Press     
    920000   304.04405      375.32208      18527.646      19337.991     -343.58027    
    921000   312.09711      370.84432      18532.166      19349.555     -488.90332    
    922000   317.3915       372.66197      18549.658      19376.44      -394.88628    
    923000   321.39369      378.22243      18556.099      19394.167     -398.62838    
    924000   310.17034      381.19955      18562.786      19387.774     -223.11232    
    925000   314.30764      374.91562      18549.97       19374.594     -320.81122    
    926000   322.62561      367.56383      18521.797      19350.97      -643.6897     
    927000   306.45815      382.27819      18509.357      19330.112     -170.18264    
    928000   310.33216      378.42567      18508.335      19330.78      -183.25001    
    929000   308.81277      368.20382      18518.474      19328.524     -644.78237    
    930000   287.89401      375.72024      18536.121      19323.756     -362.22716    
Loop time of 2.64168 on 4 procs for 10000 steps with 481 atoms

Performance: 16.353 ns/day, 1.468 hours/ns, 3785.466 timesteps/s, 1.821 Matom-step/s
98.3% CPU use with 4 MPI tasks x no OpenMP threads

MPI task timing breakdown:
Section |  min time  |  avg time  |  max time  |%varavg| %total
---------------------------------------------------------------
Pair    | 0.35658    | 0.63815    | 0.87795    |  23.4 | 24.16
Bond    | 0.80586    | 0.90263    | 1.0063     |   8.3 | 34.17
Neigh   | 0.010848   | 0.010865   | 0.010876   |   0.0 |  0.41
Comm    | 0.62415    | 0.96567    | 1.1995     |  21.8 | 36.55
Output  | 0.00030463 | 0.0003379  | 0.00042475 |   0.0 |  0.01
Modify  | 0.081477   | 0.083758   | 0.086081   |   0.6 |  3.17
Other   |            | 0.04027    |            |       |  1.52

Nlocal:         120.25 ave         129 max         111 min
Histogram: 2 0 0 0 0 0 0 0 0 2
Nghost:         4176.5 ave        4203 max        4149 min
Histogram: 1 1 0 0 0 0 0 0 1 1
Neighs:              0 ave           0 max           0 min
Histogram: 4 0 0 0 0 0 0 0 0 0

Total # of neighbors = 0
Ave neighs/atom = 0
Ave special neighs/atom = 15.567568
Neighbor list builds = 12
Dangerous builds = 0
fix             myat1 all ave/time 100 10 1000 v_zave v_zdes file simulation_data/abpot/${cpt}.dat
fix             myat1 all ave/time 100 10 1000 v_zave v_zdes file simulation_data/abpot/16.dat
run             50000
Generated 0 of 1 mixed pair_coeff terms from geometric mixing rule
Per MPI rank memory allocation (min/avg/max) = 14.61 | 14.61 | 14.61 Mbytes
   Step          Temp          E_pair         E_mol          TotEng         Press     
    930000   287.89401      375.72024      18536.121      19323.756     -362.22716    
    931000   293.93004      379.6252       18517.111      19317.288     -50.400764    
    932000   301.07714      376.91766      18509.335      19317.03      -356.46095    
    933000   289.56809      376.7471       18537.769      19328.827     -293.23117    
    934000   292.27068      371.19026      18544.695      19334.063     -567.10477    
    935000   315.59704      379.6447       18519.536      19350.733     -57.344995    
    936000   302.62315      379.36916      18553.325      19365.684     -278.63788    
    937000   299.47125      366.87313      18576.909      19372.263     -624.8513     
    938000   318.57362      376.82249      18528.773      19361.407     -347.43881    
    939000   309.54939      375.59324      18528.362      19346.855     -317.14213    
    940000   302.66846      369.1288       18523.631      19325.814     -582.5271     
    941000   283.50544      375.30818      18532.68       19313.625     -259.57091    
    942000   286.66974      375.07357      18530.989      19316.226     -420.68625    
    943000   296.17966      370.93666      18525.691      19320.398     -378.19654    
    944000   303.3317       371.7302       18516.481      19322.215     -446.12362    
    945000   291.24804      375.00268      18539.593      19331.31      -380.04011    
    946000   313.79465      375.58186      18517.678      19342.234     -260.02489    
    947000   302.33697      374.05816      18540.439      19347.077     -381.83086    
    948000   324.58037      368.35968      18528.182      19360.948     -568.06651    
    949000   311.27077      376.86691      18540.273      19362.502     -198.13787    
    950000   315.14208      376.87934      18531.213      19358.994     -290.18668    
    951000   301.86163      371.9663       18538.513      19342.38      -332.89909    
    952000   298.35273      373.65411      18530.403      19330.937     -256.02389    
    953000   289.34942      375.16629      18524.29       19313.454     -453.60236    
    954000   283.71435      374.32231      18520.38       19300.638     -374.73307    
    955000   285.43565      381.93761      18516.261      19306.597     -113.38255    
    956000   281.39084      367.03991      18549.805      19319.456     -715.96415    
    957000   300.69788      373.49228      18522.581      19326.309     -542.78422    
    958000   299.0314       387.06249      18525.893      19340.807      52.407621    
    959000   313.97072      373.0514       18539.433      19361.71      -559.72947    
    960000   312.85862      369.47257      18544.699      19361.806     -472.32709    
    961000   314.90069      375.20157      18529.5        19355.258     -358.47778    
    962000   319.40129      380.78536      18511.678      19349.459     -92.908263    
    963000   292.76735      375.59222      18548.672      19343.152     -380.5266     
    964000   299.92912      368.99909      18537.28       19335.414     -556.51348    
    965000   291.51555      377.18434      18540.36       19334.642     -339.91622    
    966000   298.49944      377.84435      18518.649      19323.583     -212.48549    
    967000   300.48424      371.99004      18520.88       19322.8       -437.95635    
    968000   302.60257      370.89844      18520.94       19324.799     -485.64431    
    969000   289.25033      374.66326      18528.082      19316.602     -335.31959    
    970000   296.81715      375.16239      18517.819      19317.664     -326.529      
    971000   296.3674       376.11575      18527.225      19327.38      -300.91381    
    972000   310.10854      370.50186      18525.45       19339.652     -474.13649    
    973000   307.23106      375.11788      18531.102      19345.803     -142.18252    
    974000   321.34196      379.6395       18510.993      19350.405     -338.10774    
    975000   310.96962      369.52152      18547.813      19362.267     -372.58054    
    976000   297.69835      372.99072      18560.882      19359.816     -475.44551    
    977000   308.55201      374.40964      18538.731      19354.613     -218.44509    
    978000   310.56675      373.34494      18523.71       19341.41      -298.96779    
    979000   293.61996      373.4656       18524.592      19318.166     -305.81144    
    980000   289.58431      374.10649      18518.233      19306.673     -465.58173    
Loop time of 12.5548 on 4 procs for 50000 steps with 481 atoms

Performance: 17.205 ns/day, 1.395 hours/ns, 3982.534 timesteps/s, 1.916 Matom-step/s
99.3% CPU use with 4 MPI tasks x no OpenMP threads

MPI task timing breakdown:
Section |  min time  |  avg time  |  max time  |%varavg| %total
---------------------------------------------------------------
Pair    | 1.7236     | 3.0993     | 4.2727     |  51.9 | 24.69
Bond    | 3.9619     | 4.412      | 4.9216     |  18.2 | 35.14
Neigh   | 0.048837   | 0.048866   | 0.048893   |   0.0 |  0.39
Comm    | 2.7746     | 4.4603     | 5.6228     |  49.9 | 35.53
Output  | 0.0017056  | 0.0026536  | 0.0030012  |   1.1 |  0.02
Modify  | 0.34526    | 0.35069    | 0.35658    |   0.7 |  2.79
Other   |            | 0.1811     |            |       |  1.44

Nlocal:         120.25 ave         125 max         115 min
Histogram: 1 1 0 0 0 0 0 0 0 2
Nghost:        4159.25 ave        4179 max        4139 min
Histogram: 2 0 0 0 0 0 0 0 0 2
Neighs:              0 ave           0 max           0 min
Histogram: 4 0 0 0 0 0 0 0 0 0

Total # of neighbors = 0
Ave neighs/atom = 0
Ave special neighs/atom = 15.567568
Neighbor list builds = 54
Dangerous builds = 0
unfix           myat1
next            cpt
jump            SELF loop
variable        zdes equal  -15+0.30*(${cpt}-1)
variable        zdes equal  -15+0.30*(17-1)
fix             mytth2 H2 spring tether ${k1} 5 5 ${zdes} 0
fix             mytth2 H2 spring tether 0.5 5 5 ${zdes} 0
fix             mytth2 H2 spring tether 0.5 5 5 -10.2 0
run             10000
Generated 0 of 1 mixed pair_coeff terms from geometric mixing rule
Per MPI rank memory allocation (min/avg/max) = 14.61 | 14.61 | 14.61 Mbytes
   Step          Temp          E_pair         E_mol          TotEng         Press     
    980000   289.58431      374.10649      18518.233      19306.673     -465.58173    
    981000   280.88028      376.04262      18528.704      19306.627     -241.26944    
    982000   295.71075      376.43961      18516.147      19315.686     -187.50609    
    983000   296.20469      369.6291       18525.949      19319.385     -554.88367    
    984000   287.91084      375.39284      18542.818      19330.15      -359.91586    
    985000   308.40992      381.29614      18518.821      19341.387     -113.88847    
    986000   300.73611      367.77823      18543.611      19341.679     -662.08091    
    987000   308.38694      377.95748      18525.975      19345.169     -237.72484    
    988000   302.17883      376.64268      18524.416      19333.413     -282.99185    
    989000   315.01082      374.01458      18508.127      19332.856     -452.22866    
    990000   305.85472      373.52516      18524.241      19335.38      -303.32895    
Loop time of 2.491 on 4 procs for 10000 steps with 481 atoms

Performance: 17.342 ns/day, 1.384 hours/ns, 4014.454 timesteps/s, 1.931 Matom-step/s
99.5% CPU use with 4 MPI tasks x no OpenMP threads

MPI task timing breakdown:
Section |  min time  |  avg time  |  max time  |%varavg| %total
---------------------------------------------------------------
Pair    | 0.33949    | 0.61864    | 0.84939    |  23.3 | 24.84
Bond    | 0.79358    | 0.87952    | 0.97519    |   7.7 | 35.31
Neigh   | 0.010788   | 0.010802   | 0.010815   |   0.0 |  0.43
Comm    | 0.5543     | 0.87889    | 1.1167     |  22.1 | 35.28
Output  | 0.00029983 | 0.00034121 | 0.00042092 |   0.0 |  0.01
Modify  | 0.06539    | 0.067422   | 0.069304   |   0.7 |  2.71
Other   |            | 0.03538    |            |       |  1.42

Nlocal:         120.25 ave         126 max         115 min
Histogram: 2 0 0 0 0 0 0 0 1 1
Nghost:         4173.5 ave        4194 max        4152 min
Histogram: 2 0 0 0 0 0 0 0 0 2
Neighs:              0 ave           0 max           0 min
Histogram: 4 0 0 0 0 0 0 0 0 0

Total # of neighbors = 0
Ave neighs/atom = 0
Ave special neighs/atom = 15.567568
Neighbor list builds = 12
Dangerous builds = 0
fix             myat1 all ave/time 100 10 1000 v_zave v_zdes file simulation_data/abpot/${cpt}.dat
fix             myat1 all ave/time 100 10 1000 v_zave v_zdes file simulation_data/abpot/17.dat
run             50000
Generated 0 of 1 mixed pair_coeff terms from geometric mixing rule
Per MPI rank memory allocation (min/avg/max) = 14.61 | 14.61 | 14.61 Mbytes
   Step          Temp          E_pair         E_mol          TotEng         Press     
    990000   305.85472      373.52516      18524.241      19335.38      -303.32895    
    991000   293.31837      373.63167      18537.34       19330.648     -415.73206    
    992000   297.50712      377.45426      18508.066      19311.19      -312.49793    
    993000   298.35899      371.31217      18499.017      19297.218     -496.06664    
    994000   279.24702      376.72983      18510.352      19286.625     -340.85702    
    995000   276.50788      370.74482      18516.856      19283.225     -471.33905    
    996000   284.09879      375.51362      18511.814      19293.813     -421.35706    
    997000   280.12479      377.58843      18530.437      19308.825     -310.94488    
    998000   299.50898      369.79686      18535.394      19333.725     -625.15987    
    999000   312.02458      373.97499      18523.135      19343.551     -463.33193    
   1000000   296.92069      376.84351      18544.559      19346.233     -261.59023    
   1001000   312.19789      374.15482      18518.109      19338.953     -578.77381    
   1002000   304.13228      372.26349      18538.902      19346.315     -576.25212    
   1003000   288.02391      373.38726      18547.127      19332.616     -464.4654     
   1004000   291.67755      375.8726       18526.015      19319.217     -295.60348    
   1005000   286.81008      375.66752      18518.825      19304.857     -188.90819    
   1006000   292.93138      365.41768      18510.481      19295.021     -613.42018    
   1007000   279.0783       375.13749      18518.984      19293.424     -412.96567    
   1008000   296.4549       380.70999      18494.547      19299.422     -96.371238    
   1009000   301.91393      371.0625       18522.051      19325.088     -369.06249    
   1010000   311.52497      376.68372      18527.532      19349.942     -270.19612    
   1011000   312.96011      369.06438      18541.051      19357.895     -519.21954    
   1012000   321.45492      383.47095      18508.561      19351.966     -105.79973    
   1013000   301.95822      375.84245      18535.097      19342.978     -334.32083    
   1014000   305.5094       368.24636      18529.604      19334.97      -505.28505    
   1015000   304.6532       379.17968      18505.956      19321.03      -249.37105    
   1016000   293.25539      380.74689      18506.229      19306.562     -181.24637    
   1017000   291.80883      373.6521       18513.802      19304.971     -344.13513    
   1018000   278.96033      375.28043      18535.531      19309.945     -334.58284    
   1019000   290.4476       373.97843      18524.882      19314.429     -434.62705    
   1020000   296.17219      379.64925      18525.965      19329.374     -199.82771    
   1021000   309.36826      378.46153      18542.495      19363.597     -353.67916    
   1022000   314.89816      372.9355       18550.205      19373.694     -502.00487    
   1023000   309.18479      370.97618      18554.965      19368.319     -434.27817    
   1024000   324.92694      386.76097      18510.101      19361.764      15.890903    
   1025000   300.2664       368.83303      18541.109      19339.56      -680.30261    
   1026000   289.1301       369.0655       18539.46       19322.21      -690.38472    
   1027000   303.05934      380.01026      18511.753      19325.377     -146.16388    
   1028000   281.14467      372.68613      18540.67       19315.615     -433.90498    
   1029000   302.69849      373.5398       18510.955      19317.592     -379.14256    
   1030000   300.93945      374.08753      18518.425      19323.093     -443.72301    
   1031000   307.4099       377.81333      18510.153      19327.805     -201.90921    
   1032000   300.34336      374.41203      18544.852      19348.992     -294.53308    
   1033000   320.17218      372.4961       18547.345      19377.94      -402.3738     
   1034000   308.3458       371.28251      18563.89       19376.35      -530.90454    
   1035000   301.82256      381.11849      18553.223      19366.185     -234.7992     
   1036000   298.14649      374.35556      18547.617      19348.557     -427.11521    
   1037000   323.15087      369.74797      18513.388      19345.497     -517.5995     
   1038000   293.36799      378.30197      18527.412      19325.462     -248.2747     
   1039000   297.76685      376.75951      18515.692      19318.493     -243.6302     
   1040000   300.40019      376.67772      18516.546      19323.033     -369.93238    
Loop time of 12.4508 on 4 procs for 50000 steps with 481 atoms

Performance: 17.348 ns/day, 1.383 hours/ns, 4015.813 timesteps/s, 1.932 Matom-step/s
99.5% CPU use with 4 MPI tasks x no OpenMP threads

MPI task timing breakdown:
Section |  min time  |  avg time  |  max time  |%varavg| %total
---------------------------------------------------------------
Pair    | 1.7238     | 3.0854     | 4.2481     |  51.5 | 24.78
Bond    | 3.9419     | 4.3992     | 4.9022     |  18.3 | 35.33
Neigh   | 0.049      | 0.049013   | 0.049024   |   0.0 |  0.39
Comm    | 2.7352     | 4.4        | 5.5334     |  49.5 | 35.34
Output  | 0.0016847  | 0.0024533  | 0.0027647  |   0.9 |  0.02
Modify  | 0.33526    | 0.33764    | 0.34012    |   0.3 |  2.71
Other   |            | 0.1771     |            |       |  1.42

Nlocal:         120.25 ave         130 max         111 min
Histogram: 2 0 0 0 0 0 0 0 1 1
Nghost:        4177.25 ave        4204 max        4152 min
Histogram: 2 0 0 0 0 0 0 0 1 1
Neighs:              0 ave           0 max           0 min
Histogram: 4 0 0 0 0 0 0 0 0 0

Total # of neighbors = 0
Ave neighs/atom = 0
Ave special neighs/atom = 15.567568
Neighbor list builds = 54
Dangerous builds = 0
unfix           myat1
next            cpt
jump            SELF loop
variable        zdes equal  -15+0.30*(${cpt}-1)
variable        zdes equal  -15+0.30*(18-1)
fix             mytth2 H2 spring tether ${k1} 5 5 ${zdes} 0
fix             mytth2 H2 spring tether 0.5 5 5 ${zdes} 0
fix             mytth2 H2 spring tether 0.5 5 5 -9.9 0
run             10000
Generated 0 of 1 mixed pair_coeff terms from geometric mixing rule
Per MPI rank memory allocation (min/avg/max) = 14.61 | 14.61 | 14.61 Mbytes
   Step          Temp          E_pair         E_mol          TotEng         Press     
   1040000   300.40019      376.67772      18516.546      19323.033     -369.93238    
   1041000   302.33133      368.32672      18523.888      19324.787     -558.74007    
   1042000   298.57123      374.49201      18525.004      19326.688     -306.37049    
   1043000   306.0102       376.30081      18509.892      19324.028     -267.93106    
   1044000   317.76632      375.69053      18508.318      19338.665     -304.53357    
   1045000   303.38313      370.42359      18548.329      19352.83      -535.4979     
   1046000   320.27493      373.97131      18531.97       19364.187     -447.4943     
   1047000   311.36346      385.73247      18538.02       19369.248      3.3445238    
   1048000   302.95887      367.87706      18561.997      19363.344     -620.93683    
   1049000   309.07383      374.28244      18527.256      19343.758     -345.0538     
   1050000   293.48898      374.25263      18530.819      19324.992     -381.59909    
Loop time of 2.48968 on 4 procs for 10000 steps with 481 atoms

Performance: 17.352 ns/day, 1.383 hours/ns, 4016.573 timesteps/s, 1.932 Matom-step/s
99.5% CPU use with 4 MPI tasks x no OpenMP threads

MPI task timing breakdown:
Section |  min time  |  avg time  |  max time  |%varavg| %total
---------------------------------------------------------------
Pair    | 0.3421     | 0.61768    | 0.85147    |  23.2 | 24.81
Bond    | 0.7892     | 0.88018    | 0.9789     |   8.0 | 35.35
Neigh   | 0.0099685  | 0.009991   | 0.010014   |   0.0 |  0.40
Comm    | 0.54964    | 0.87918    | 1.1082     |  22.1 | 35.31
Output  | 0.00029242 | 0.0003208  | 0.00039629 |   0.0 |  0.01
Modify  | 0.063675   | 0.06684    | 0.070018   |   1.1 |  2.68
Other   |            | 0.03549    |            |       |  1.43

Nlocal:         120.25 ave         127 max         113 min
Histogram: 1 0 1 0 0 0 0 0 1 1
Nghost:         4179.5 ave        4205 max        4155 min
Histogram: 1 1 0 0 0 0 0 0 1 1
Neighs:              0 ave           0 max           0 min
Histogram: 4 0 0 0 0 0 0 0 0 0

Total # of neighbors = 0
Ave neighs/atom = 0
Ave special neighs/atom = 15.567568
Neighbor list builds = 11
Dangerous builds = 0
fix             myat1 all ave/time 100 10 1000 v_zave v_zdes file simulation_data/abpot/${cpt}.dat
fix             myat1 all ave/time 100 10 1000 v_zave v_zdes file simulation_data/abpot/18.dat
run             50000
Generated 0 of 1 mixed pair_coeff terms from geometric mixing rule
Per MPI rank memory allocation (min/avg/max) = 14.61 | 14.61 | 14.61 Mbytes
   Step          Temp          E_pair         E_mol          TotEng         Press     
   1050000   293.48898      374.25263      18530.819      19324.992     -381.59909    
   1051000   293.73137      374.44658      18513.512      19308.226     -509.25836    
   1052000   288.43908      377.71209      18524.487      19314.894     -288.16904    
   1053000   320.94417      367.86324      18488.422      19315.489     -548.56295    
   1054000   288.12124      376.58331      18523.272      19312.096     -292.75242    
   1055000   302.49507      382.87533      18503.92       19319.602     -188.3244     
   1056000   293.36736      370.96012      18543.134      19333.84      -590.42977    
   1057000   309.2336       372.84223      18529.643      19344.934     -401.96742    
   1058000   323.25517      375.94904      18520.81       19359.269     -272.50123    
   1059000   318.31087      377.33986      18538.632      19371.407     -205.25905    
   1060000   333.11782      374.00848      18526.447      19377.077     -238.86325    
   1061000   310.80026      376.84092      18536.636      19358.166     -456.84622    
   1062000   309.39735      374.9811       18508.335      19325.999     -220.48494    
   1063000   295.47466      379.21559      18515.249      19317.226     -222.37672    
   1064000   299.54762      371.03523      18513.735      19313.359     -480.90445    
   1065000   301.61063      372.67836      18505.395      19309.614     -423.41796    
   1066000   290.2314       375.49094      18522.007      19312.758     -265.20306    
   1067000   306.43387      379.76986      18505.62       19323.832     -126.57965    
   1068000   298.25144      371.0801       18534.884      19332.699     -330.54162    
   1069000   303.87651      367.47567      18548.091      19350.35      -693.89817    
   1070000   301.81265      384.61632      18535.925      19352.371      28.104269    
   1071000   327.53398      377.70452      18517.743      19364.08      -238.36605    
   1072000   309.73456      368.36986      18548.706      19360.241     -495.73842    
   1073000   317.01456      370.4904       18521.685      19345.757     -578.34189    
   1074000   297.15783      375.6454       18510.729      19311.545     -118.58705    
   1075000   288.29728      376.50142      18513.152      19302.146     -472.51622    
   1076000   294.5499       368.38187      18509.366      19299.187     -517.3975     
   1077000   286.92398      373.04284      18526.218      19309.788     -605.75783    
   1078000   293.32195      378.41177      18515.567      19313.66      -197.79197    
   1079000   305.44967      375.88006      18520.15       19333.064     -253.77394    
   1080000   302.78132      370.07659      18543.71       19347.003     -536.8385     
   1081000   310.15913      369.33947      18533.482      19346.594     -577.31746    
   1082000   303.14865      381.47862      18529.101      19344.321     -158.97877    
   1083000   319.48362      371.92534      18521.076      19350.115     -316.69194    
   1084000   295.98676      367.10951      18542.459      19333.063     -636.87135    
   1085000   281.59897      375.93404      18521.72       19300.563     -402.86166    
   1086000   273.78375      381.3867       18514.915      19288.029     -59.312023    
   1087000   280.57912      369.05609      18520.477      19290.983     -488.40746    
   1088000   273.81223      367.50019      18541.225      19300.493     -730.50948    
   1089000   291.9015       372.49669      18518.433      19308.579     -505.84385    
   1090000   307.78016      382.53367      18496.708      19319.61       173.01331    
   1091000   293.68313      370.83432      18542.644      19333.677     -655.96914    
   1092000   308.95728      364.47962      18533.197      19339.729     -736.49195    
   1093000   315.87688      383.40405      18508.087      19343.444     -220.02905    
   1094000   298.89098      385.71205      18522.253      19335.615      21.898114    
   1095000   297.9611       368.19373      18538.432      19332.945     -603.51541    
   1096000   308.65721      370.28611      18528.561      19340.47      -619.07226    
   1097000   279.65956      378.89124      18528.811      19307.836     -398.41974    
   1098000   283.03255      383.64645      18498.948      19287.554     -94.395569    
   1099000   273.65047      367.72231      18527.284      19286.543     -681.38724    
   1100000   298.11919      368.11244      18501.169      19295.827     -540.12479    
Loop time of 12.5746 on 4 procs for 50000 steps with 481 atoms

Performance: 17.177 ns/day, 1.397 hours/ns, 3976.258 timesteps/s, 1.913 Matom-step/s
99.2% CPU use with 4 MPI tasks x no OpenMP threads

MPI task timing breakdown:
Section |  min time  |  avg time  |  max time  |%varavg| %total
---------------------------------------------------------------
Pair    | 1.723      | 3.0919     | 4.2562     |  51.6 | 24.59
Bond    | 3.9591     | 4.4142     | 4.9244     |  18.3 | 35.10
Neigh   | 0.058875   | 0.058994   | 0.059111   |   0.0 |  0.47
Comm    | 2.7983     | 4.4738     | 5.625      |  49.5 | 35.58
Output  | 0.0015516  | 0.0023216  | 0.0025988  |   0.9 |  0.02
Modify  | 0.35055    | 0.35419    | 0.35936    |   0.5 |  2.82
Other   |            | 0.1792     |            |       |  1.43

Nlocal:         120.25 ave         127 max         114 min
Histogram: 2 0 0 0 0 0 0 0 0 2
Nghost:        4156.25 ave        4181 max        4131 min
Histogram: 1 1 0 0 0 0 0 0 1 1
Neighs:              0 ave           0 max           0 min
Histogram: 4 0 0 0 0 0 0 0 0 0

Total # of neighbors = 0
Ave neighs/atom = 0
Ave special neighs/atom = 15.567568
Neighbor list builds = 65
Dangerous builds = 0
unfix           myat1
next            cpt
jump            SELF loop
variable        zdes equal  -15+0.30*(${cpt}-1)
variable        zdes equal  -15+0.30*(19-1)
fix             mytth2 H2 spring tether ${k1} 5 5 ${zdes} 0
fix             mytth2 H2 spring tether 0.5 5 5 ${zdes} 0
fix             mytth2 H2 spring tether 0.5 5 5 -9.6 0
run             10000
Generated 0 of 1 mixed pair_coeff terms from geometric mixing rule
Per MPI rank memory allocation (min/avg/max) = 14.61 | 14.61 | 14.61 Mbytes
   Step          Temp          E_pair         E_mol          TotEng         Press     
   1100000   298.11919      368.11244      18501.169      19295.827     -540.12479    
   1101000   280.3603       382.73895      18520.243      19304.118     -226.96625    
   1102000   303.86637      379.12725      18507.46       19321.356     -281.84934    
   1103000   303.93315      368.18484      18528.448      19331.497     -566.87058    
   1104000   289.83172      369.55333      18552.743      19336.984     -697.04076    
   1105000   296.73876      383.29313      18524.834      19332.697     -74.106842    
   1106000   310.37003      377.3718       18515.96       19337.406     -343.61901    
   1107000   302.19955      367.87373      18538.366      19338.623     -671.25266    
   1108000   295.31977      368.87415      18536.032      19327.446     -518.07629    
   1109000   290.92812      384.2097       18510.6        19311.067      32.234172    
   1110000   280.29474      379.77169      18508.548      19289.362     -329.80742    
Loop time of 2.46786 on 4 procs for 10000 steps with 481 atoms

Performance: 17.505 ns/day, 1.371 hours/ns, 4052.098 timesteps/s, 1.949 Matom-step/s
99.6% CPU use with 4 MPI tasks x no OpenMP threads

MPI task timing breakdown:
Section |  min time  |  avg time  |  max time  |%varavg| %total
---------------------------------------------------------------
Pair    | 0.34267    | 0.61482    | 0.83594    |  22.6 | 24.91
Bond    | 0.80033    | 0.87964    | 0.96289    |   7.1 | 35.64
Neigh   | 0.010755   | 0.010788   | 0.010825   |   0.0 |  0.44
Comm    | 0.56316    | 0.85997    | 1.0792     |  20.5 | 34.85
Output  | 0.000229   | 0.00026248 | 0.00033138 |   0.0 |  0.01
Modify  | 0.059819   | 0.067409   | 0.07498    |   2.8 |  2.73
Other   |            | 0.03497    |            |       |  1.42

Nlocal:         120.25 ave         124 max         116 min
Histogram: 1 0 0 1 0 0 0 1 0 1
Nghost:         4170.5 ave        4191 max        4151 min
Histogram: 1 1 0 0 0 0 0 0 1 1
Neighs:              0 ave           0 max           0 min
Histogram: 4 0 0 0 0 0 0 0 0 0

Total # of neighbors = 0
Ave neighs/atom = 0
Ave special neighs/atom = 15.567568
Neighbor list builds = 12
Dangerous builds = 0
fix             myat1 all ave/time 100 10 1000 v_zave v_zdes file simulation_data/abpot/${cpt}.dat
fix             myat1 all ave/time 100 10 1000 v_zave v_zdes file simulation_data/abpot/19.dat
run             50000
Generated 0 of 1 mixed pair_coeff terms from geometric mixing rule
Per MPI rank memory allocation (min/avg/max) = 14.61 | 14.61 | 14.61 Mbytes
   Step          Temp          E_pair         E_mol          TotEng         Press     
   1110000   280.29474      379.77169      18508.548      19289.362     -329.80742    
   1111000   279.82226      366.06226      18520.736      19287.165     -571.76355    
   1112000   278.40124      373.60683      18508.131      19280.071     -501.08825    
   1113000   281.87863      381.57277      18498.555      19283.436     -94.643707    
   1114000   297.90104      382.43927      18499.702      19308.375     -66.69928     
   1115000   288.82293      369.56568      18540.735      19323.545     -585.9807     
   1116000   299.3579       370.94542      18528.705      19327.968     -526.23116    
   1117000   317.75545      386.89711      18485.389      19326.927      86.232517    
   1118000   313.16071      375.8044       18509.031      19332.902     -441.22981    
   1119000   308.56909      365.35993      18523.469      19330.326     -779.55307    
   1120000   300.37444      377.17674      18511.148      19318.097     -353.91475    
   1121000   288.98007      382.88488      18514.511      19310.865     -210.78044    
   1122000   294.0548       372.48787      18512.262      19305.48      -436.74215    
   1123000   287.52238      367.40142      18519.675      19298.461     -653.2432     
   1124000   290.95286      376.63762      18492.034      19284.963     -206.48965    
   1125000   284.05208      384.12061      18487.498      19278.037     -140.09941    
   1126000   282.36644      369.57309      18529.677      19303.257     -457.10231    
   1127000   296.37048      368.65717      18530.735      19323.435     -433.11662    
   1128000   317.36714      384.12147      18489.806      19328.013      42.654937    
   1129000   305.08441      377.52111      18529.013      19343.045     -181.24995    
   1130000   308.16967      370.39949      18536.049      19347.374     -612.51846    
   1131000   296.83189      366.41544      18551.054      19342.173     -597.93079    
   1132000   297.27964      385.30262      18518.156      19328.803      88.840593    
   1133000   311.45191      380.23721      18491.604      19317.463     -42.875996    
   1134000   299.14986      363.48048      18515.517      19307.018     -674.01627    
   1135000   291.85379      374.17278      18503.13       19294.884     -319.11943    
   1136000   286.46332      381.83541      18498.307      19290.011     -157.33958    
   1137000   286.94138      374.72908      18506.644      19291.926     -228.23203    
   1138000   299.5019       369.92729      18524.823      19323.274     -591.80721    
   1139000   304.5089       370.19407      18552.933      19358.815     -598.7596     
   1140000   316.52842      388.65203      18511.969      19353.507      55.037367    
   1141000   302.53039      374.3672       18544.781      19352.005     -338.02735    
   1142000   311.64698      360.87612      18542.41       19349.187     -815.00781    
   1143000   298.74313      374.01243      18528.34       19329.791     -319.07946    
   1144000   305.2356       383.69957      18489.539      19309.966     -61.116922    
   1145000   294.79906      377.99781      18505.919      19305.712     -272.97997    
   1146000   290.43568      362.34225      18528.917      19306.811     -849.39801    
   1147000   291.32847      371.418        18522.374      19310.622     -562.16701    
   1148000   311.51643      386.371        18479.11       19311.195      67.023531    
   1149000   296.89074      375.31738      18538.366      19338.472     -294.82884    
   1150000   303.8549       358.54691      18561.575      19354.874     -893.23552    
   1151000   316.01797      377.40085      18530.569      19360.124     -142.10197    
   1152000   313.45451      385.64698      18519.264      19353.398      53.617586    
   1153000   306.27668      373.8428       18536.888      19348.948     -442.00402    
   1154000   296.50053      364.67822      18552.795      19341.703     -722.02612    
   1155000   297.89043      374.63107      18526.052      19326.902     -388.89074    
   1156000   303.00771      388.08713      18494.064      19315.691      58.652618    
   1157000   299.96436      371.90463      18517.403      19318.493     -609.46535    
   1158000   306.23738      364.76491      18519.971      19322.897     -599.84181    
   1159000   284.51364      375.1831       18530.521      19312.783     -325.86177    
   1160000   299.63771      382.68359      18505.088      19316.49      -135.52134    
Loop time of 12.4028 on 4 procs for 50000 steps with 481 atoms

Performance: 17.415 ns/day, 1.378 hours/ns, 4031.349 timesteps/s, 1.939 Matom-step/s
99.6% CPU use with 4 MPI tasks x no OpenMP threads

MPI task timing breakdown:
Section |  min time  |  avg time  |  max time  |%varavg| %total
---------------------------------------------------------------
Pair    | 1.7135     | 3.0686     | 4.2173     |  51.2 | 24.74
Bond    | 3.9673     | 4.4012     | 4.8829     |  17.5 | 35.49
Neigh   | 0.054964   | 0.054985   | 0.055003   |   0.0 |  0.44
Comm    | 2.7316     | 4.3545     | 5.4826     |  48.7 | 35.11
Output  | 0.0014525  | 0.0019938  | 0.0022089  |   0.7 |  0.02
Modify  | 0.33774    | 0.34657    | 0.35427    |   1.1 |  2.79
Other   |            | 0.175      |            |       |  1.41

Nlocal:         120.25 ave         128 max         112 min
Histogram: 1 1 0 0 0 0 0 0 0 2
Nghost:        4192.25 ave        4217 max        4169 min
Histogram: 2 0 0 0 0 0 0 0 1 1
Neighs:              0 ave           0 max           0 min
Histogram: 4 0 0 0 0 0 0 0 0 0

Total # of neighbors = 0
Ave neighs/atom = 0
Ave special neighs/atom = 15.567568
Neighbor list builds = 61
Dangerous builds = 0
unfix           myat1
next            cpt
jump            SELF loop
variable        zdes equal  -15+0.30*(${cpt}-1)
variable        zdes equal  -15+0.30*(20-1)
fix             mytth2 H2 spring tether ${k1} 5 5 ${zdes} 0
fix             mytth2 H2 spring tether 0.5 5 5 ${zdes} 0
fix             mytth2 H2 spring tether 0.5 5 5 -9.3 0
run             10000
Generated 0 of 1 mixed pair_coeff terms from geometric mixing rule
Per MPI rank memory allocation (min/avg/max) = 14.61 | 14.61 | 14.61 Mbytes
   Step          Temp          E_pair         E_mol          TotEng         Press     
   1160000   299.63771      382.68359      18505.088      19316.49      -135.52134    
   1161000   318.36297      372.35451      18502.514      19330.379     -496.6515     
   1162000   294.19094      364.76945      18540.199      19325.894     -843.39985    
   1163000   301.95956      382.79758      18506.491      19321.329     -117.65413    
   1164000   293.8358       379.8119       18525.274      19325.503     -221.14919    
   1165000   309.46171      369.42571      18519.094      19331.294     -446.26551    
   1166000   298.11444      370.98321      18536.512      19334.034     -628.97073    
   1167000   288.83736      381.18359      18536.538      19330.987     -167.5996     
   1168000   314.11714      383.9267       18493.91       19327.272     -111.68363    
   1169000   295.35938      366.71911      18539.16       19328.476     -713.05821    
   1170000   298.22527      375.85285      18524.732      19327.283     -476.56783    
Loop time of 2.47899 on 4 procs for 10000 steps with 481 atoms

Performance: 17.426 ns/day, 1.377 hours/ns, 4033.906 timesteps/s, 1.940 Matom-step/s
99.7% CPU use with 4 MPI tasks x no OpenMP threads

MPI task timing breakdown:
Section |  min time  |  avg time  |  max time  |%varavg| %total
---------------------------------------------------------------
Pair    | 0.34109    | 0.61327    | 0.84092    |  22.9 | 24.74
Bond    | 0.78942    | 0.87879    | 0.97803    |   7.9 | 35.45
Neigh   | 0.011723   | 0.011734   | 0.011746   |   0.0 |  0.47
Comm    | 0.54562    | 0.87104    | 1.1007     |  22.0 | 35.14
Output  | 0.00024463 | 0.00027023 | 0.00033625 |   0.0 |  0.01
Modify  | 0.067674   | 0.069027   | 0.07039    |   0.4 |  2.78
Other   |            | 0.03485    |            |       |  1.41

Nlocal:         120.25 ave         126 max         115 min
Histogram: 2 0 0 0 0 0 0 0 1 1
Nghost:         4146.5 ave        4176 max        4120 min
Histogram: 1 0 1 0 0 0 1 0 0 1
Neighs:              0 ave           0 max           0 min
Histogram: 4 0 0 0 0 0 0 0 0 0

Total # of neighbors = 0
Ave neighs/atom = 0
Ave special neighs/atom = 15.567568
Neighbor list builds = 13
Dangerous builds = 0
fix             myat1 all ave/time 100 10 1000 v_zave v_zdes file simulation_data/abpot/${cpt}.dat
fix             myat1 all ave/time 100 10 1000 v_zave v_zdes file simulation_data/abpot/20.dat
run             50000
Generated 0 of 1 mixed pair_coeff terms from geometric mixing rule
Per MPI rank memory allocation (min/avg/max) = 14.61 | 14.61 | 14.61 Mbytes
   Step          Temp          E_pair         E_mol          TotEng         Press     
   1170000   298.22527      375.85285      18524.732      19327.283     -476.56783    
   1171000   293.39129      381.69425      18514.723      19316.198     -28.334948    
   1172000   289.3674       373.38887      18518.82       19306.233     -496.23634    
   1173000   290.03073      369.42056      18508.825      19293.218     -541.43713    
   1174000   287.96321      368.52507      18505.963      19286.503     -572.2399     
   1175000   290.08609      384.06762      18487.21       19286.33       53.963088    
   1176000   285.44809      373.26971      18515.306      19296.992     -534.48576    
   1177000   302.53201      364.09877      18529.056      19326.014     -751.57676    
   1178000   288.02786      379.17906      18537.944      19329.23      -371.74066    
   1179000   308.25919      380.78534      18513.221      19335.061     -265.20899    
   1180000   301.66339      376.2204       18535.134      19342.971     -517.91095    
   1181000   308.39234      366.14687      18537.413      19344.804     -831.9934     
   1182000   302.65514      373.88744      18525.399      19332.322     -450.65169    
   1183000   294.19627      389.75865      18507.112      19317.804      96.072437    
   1184000   300.45527      369.67668      18503.802      19303.366     -525.97044    
   1185000   282.01318      361.15402      18523.013      19287.669     -865.6864     
   1186000   275.42456      383.09775      18502.92       19280.092     -7.047339     
   1187000   274.2065       374.89103      18512.821      19280.043     -459.05471    
   1188000   288.13897      372.75822      18516.629      19301.653     -374.76507    
   1189000   297.91004      367.24558      18517.227      19310.719     -699.67243    
   1190000   300.58661      376.12985      18508.291      19314.497     -310.91446    
   1191000   307.51909      384.75366      18499.089      19323.837     -97.992736    
   1192000   302.51987      365.82731      18540.556      19339.225     -674.28707    
   1193000   295.77305      370.32601      18547.722      19341.237     -530.75555    
   1194000   316.87099      384.25681      18504.588      19342.22      -236.67929    
   1195000   308.7201       377.28728      18524.247      19343.247     -427.2408     
   1196000   298.09403      374.63134      18535.321      19336.462     -251.17215    
   1197000   287.87898      366.71334      18534.327      19312.934     -761.13733    
   1198000   287.50585      381.85327      18513.555      19306.768     -115.36963    
   1199000   281.65528      377.08378      18507.216      19287.289     -285.74915    
   1200000   296.42821      370.46491      18502.564      19297.155     -521.96112    
   1201000   287.47149      369.08649      18523.094      19303.492     -461.80873    
   1202000   299.61953      382.11432      18507.011      19317.818     -134.30988    
   1203000   287.87853      375.04434      18545.086      19332.023     -389.80543    
   1204000   300.0456       374.57526      18538.949      19342.826     -428.65583    
   1205000   315.83391      372.86332      18517.351      19342.106     -401.74002    
   1206000   308.01152      376.39794      18513.548      19330.646     -296.26941    
   1207000   287.26038      380.24151      18541.61       19332.86      -383.26581    
   1208000   290.16757      369.0757       18545.584      19329.828     -525.89716    
   1209000   290.66134      375.75839      18526.048      19317.682     -347.56807    
   1210000   291.83543      377.72704      18513.923      19309.205     -299.74375    
   1211000   294.11173      371.53227      18508.072      19300.416     -549.01871    
   1212000   278.12119      377.8146       18518.199      19293.946     -392.07579    
   1213000   278.09288      371.30684      18509.179      19278.378     -437.0843     
   1214000   293.52916      377.68542      18486.326      19283.989     -247.9417     
   1215000   291.97293      375.79787      18510.917      19304.467     -256.6653     
   1216000   288.83007      371.07408      18542.214      19326.543     -586.8112     
   1217000   316.77366      375.91319      18514.618      19343.768     -193.38578    
   1218000   308.7356       377.81579      18519.091      19338.642     -312.536      
   1219000   302.23082      369.56808      18540.712      19342.708     -499.74285    
   1220000   299.44479      375.29163      18541.912      19345.646     -434.19631    
Loop time of 12.4708 on 4 procs for 50000 steps with 481 atoms

Performance: 17.320 ns/day, 1.386 hours/ns, 4009.356 timesteps/s, 1.929 Matom-step/s
99.6% CPU use with 4 MPI tasks x no OpenMP threads

MPI task timing breakdown:
Section |  min time  |  avg time  |  max time  |%varavg| %total
---------------------------------------------------------------
Pair    | 1.714      | 3.0792     | 4.239      |  51.6 | 24.69
Bond    | 3.9375     | 4.4069     | 4.9306     |  18.8 | 35.34
Neigh   | 0.052355   | 0.052357   | 0.05236    |   0.0 |  0.42
Comm    | 2.7281     | 4.4058     | 5.5445     |  49.9 | 35.33
Output  | 0.0015493  | 0.0021419  | 0.0023662  |   0.7 |  0.02
Modify  | 0.34036    | 0.34741    | 0.35325    |   0.8 |  2.79
Other   |            | 0.177      |            |       |  1.42

Nlocal:         120.25 ave         128 max         112 min
Histogram: 1 0 1 0 0 0 0 0 1 1
Nghost:        4181.75 ave        4206 max        4158 min
Histogram: 1 1 0 0 0 0 0 0 1 1
Neighs:              0 ave           0 max           0 min
Histogram: 4 0 0 0 0 0 0 0 0 0

Total # of neighbors = 0
Ave neighs/atom = 0
Ave special neighs/atom = 15.567568
Neighbor list builds = 58
Dangerous builds = 0
unfix           myat1
next            cpt
jump            SELF loop
variable        zdes equal  -15+0.30*(${cpt}-1)
variable        zdes equal  -15+0.30*(21-1)
fix             mytth2 H2 spring tether ${k1} 5 5 ${zdes} 0
fix             mytth2 H2 spring tether 0.5 5 5 ${zdes} 0
fix             mytth2 H2 spring tether 0.5 5 5 -9 0
run             10000
Generated 0 of 1 mixed pair_coeff terms from geometric mixing rule
Per MPI rank memory allocation (min/avg/max) = 14.61 | 14.61 | 14.61 Mbytes
   Step          Temp          E_pair         E_mol          TotEng         Press     
   1220000   299.44479      375.29163      18541.912      19345.646     -434.19631    
   1221000   295.98118      374.6503       18534.456      19332.593     -305.3292     
   1222000   295.00814      379.63867      18519.524      19321.257     -137.25159    
   1223000   305.18913      377.34825      18499.157      19313.166     -327.51507    
   1224000   280.32471      367.82022      18523.971      19292.876     -630.87708    
   1225000   289.08595      376.86415      18494.357      19284.842     -282.04089    
   1226000   283.58427      380.7588       18507.238      19293.746     -181.40958    
   1227000   287.60006      371.73971      18539.542      19322.777     -518.41315    
   1228000   295.04116      373.02803      18549.747      19344.917     -405.99565    
   1229000   304.80314      375.43668      18536.363      19347.909     -443.8607     
   1230000   305.22786      382.56282      18529.355      19348.635     -39.3004      
Loop time of 2.48736 on 4 procs for 10000 steps with 481 atoms

Performance: 17.368 ns/day, 1.382 hours/ns, 4020.334 timesteps/s, 1.934 Matom-step/s
99.7% CPU use with 4 MPI tasks x no OpenMP threads

MPI task timing breakdown:
Section |  min time  |  avg time  |  max time  |%varavg| %total
---------------------------------------------------------------
Pair    | 0.34184    | 0.61444    | 0.84618    |  23.1 | 24.70
Bond    | 0.78959    | 0.88       | 0.98221    |   8.2 | 35.38
Neigh   | 0.0099437  | 0.0099577  | 0.009972   |   0.0 |  0.40
Comm    | 0.54542    | 0.87939    | 1.1095     |  22.3 | 35.35
Output  | 0.00026058 | 0.00029745 | 0.0003745  |   0.0 |  0.01
Modify  | 0.067796   | 0.068235   | 0.068609   |   0.1 |  2.74
Other   |            | 0.03503    |            |       |  1.41

Nlocal:         120.25 ave         126 max         115 min
Histogram: 2 0 0 0 0 0 0 0 1 1
Nghost:        4180.25 ave        4200 max        4160 min
Histogram: 2 0 0 0 0 0 0 0 0 2
Neighs:              0 ave           0 max           0 min
Histogram: 4 0 0 0 0 0 0 0 0 0

Total # of neighbors = 0
Ave neighs/atom = 0
Ave special neighs/atom = 15.567568
Neighbor list builds = 11
Dangerous builds = 0
fix             myat1 all ave/time 100 10 1000 v_zave v_zdes file simulation_data/abpot/${cpt}.dat
fix             myat1 all ave/time 100 10 1000 v_zave v_zdes file simulation_data/abpot/21.dat
run             50000
Generated 0 of 1 mixed pair_coeff terms from geometric mixing rule
Per MPI rank memory allocation (min/avg/max) = 14.61 | 14.61 | 14.61 Mbytes
   Step          Temp          E_pair         E_mol          TotEng         Press     
   1230000   305.22786      382.56282      18529.355      19348.635     -39.3004      
   1231000   316.96929      370.84235      18527.345      19351.703     -566.14822    
   1232000   309.82166      376.36586      18520.311      19339.966     -362.67955    
   1233000   301.607        380.21081      18520.135      19331.882     -218.01597    
   1234000   293.45095      378.32711      18518.946      19317.139     -260.39972    
   1235000   287.93152      378.89568      18519.114      19309.979     -275.46852    
   1236000   291.13492      375.90778      18516.224      19308.684     -359.64896    
   1237000   293.00564      379.32012      18511.132      19309.681     -248.20953    
   1238000   278.91343      380.88502      18549.318      19329.269     -155.98207    
   1239000   292.31257      373.58355      18562.165      19353.986     -504.78037    
   1240000   310.52147      372.73645      18552.443      19369.47      -406.56942    
   1241000   300.10026      384.23871      18547.706      19361.325     -264.99307    
   1242000   312.70703      380.60146      18532.754      19360.774     -164.44182    
   1243000   318.62879      376.04594      18518.466      19350.402     -483.88778    
   1244000   303.46718      378.05207      18522.814      19335.064     -388.57267    
   1245000   289.28034      380.84263      18529.539      19324.281     -298.93692    
   1246000   287.7779       383.98024      18520.556      19316.286     -272.19107    
   1247000   298.74319      373.41945      18517.036      19317.894     -491.90807    
   1248000   305.88172      375.51011      18502.695      19315.857     -548.59578    
   1249000   310.89122      381.24958      18499.302      19325.371     -206.88426    
   1250000   293.97908      375.60548      18526.26       19322.487     -393.76294    
   1251000   306.38344      370.00781      18522.557      19330.935     -458.74924    
   1252000   290.99934      372.43488      18545.333      19334.126     -570.86414    
   1253000   298.2826       378.94875      18523.132      19328.86      -378.98386    
   1254000   299.1593       378.17492      18536.527      19342.736     -107.28719    
   1255000   297.37632      369.25869      18549.727      19344.468     -637.46849    
   1256000   292.09073      375.06216      18561.28       19354.262     -584.93261    
   1257000   306.2684       382.2505       18542.388      19362.844     -201.33792    
   1258000   313.40504      377.68072      18541.702      19367.799     -259.3222     
   1259000   318.67318      372.96731      18540.606      19369.527     -361.91935    
   1260000   310.10371      374.36376      18532.661      19350.718     -408.0574     
   1261000   297.29216      379.21219      18522.413      19326.987     -246.39776    
   1262000   306.90939      378.1136       18495.774      19313.01      -230.99749    
   1263000   288.69599      368.84616      18533.898      19315.807     -607.89515    
   1264000   275.82383      375.88433      18549.175      19319.705     -509.34298    
   1265000   300.04705      378.39303      18519.501      19327.198     -177.18128    
   1266000   291.60842      379.28684      18543.066      19339.583     -442.05035    
   1267000   301.24683      374.6197       18554.319      19359.96      -393.10977    
   1268000   306.31256      373.5891       18552.107      19363.965     -628.25313    
   1269000   319.24395      384.85327      18527.433      19369.057      0.40721791   
   1270000   308.07712      375.60384      18553.909      19370.306     -386.34461    
   1271000   308.28315      372.55142      18545.033      19358.672     -432.75172    
   1272000   307.24884      377.7345       18531.097      19348.44      -333.48314    
   1273000   295.72461      373.1794       18541.127      19337.426     -509.12797    
   1274000   305.94877      375.71407      18515.325      19328.787     -250.00586    
   1275000   294.79993      369.56928      18534.259      19325.625     -636.38392    
   1276000   299.76434      372.6524       18523.153      19324.704     -494.70124    
   1277000   287.76408      378.90797      18531.465      19322.103     -136.65235    
   1278000   301.3571       368.14088      18532.898      19332.217     -692.95795    
   1279000   314.33448      371.37786      18531.968      19353.093     -547.55496    
   1280000   326.57131      379.06761      18522.297      19368.62      -175.66485    
Loop time of 12.4509 on 4 procs for 50000 steps with 481 atoms

Performance: 17.348 ns/day, 1.383 hours/ns, 4015.765 timesteps/s, 1.932 Matom-step/s
99.6% CPU use with 4 MPI tasks x no OpenMP threads

MPI task timing breakdown:
Section |  min time  |  avg time  |  max time  |%varavg| %total
---------------------------------------------------------------
Pair    | 1.704      | 3.0861     | 4.248      |  51.8 | 24.79
Bond    | 3.9523     | 4.3986     | 4.8943     |  17.8 | 35.33
Neigh   | 0.064714   | 0.064744   | 0.064773   |   0.0 |  0.52
Comm    | 2.7264     | 4.38       | 5.5484     |  49.6 | 35.18
Output  | 0.0013932  | 0.0019012  | 0.0020992  |   0.7 |  0.02
Modify  | 0.33965    | 0.34469    | 0.34906    |   0.6 |  2.77
Other   |            | 0.1749     |            |       |  1.40

Nlocal:         120.25 ave         127 max         113 min
Histogram: 1 1 0 0 0 0 0 0 0 2
Nghost:        4163.75 ave        4186 max        4140 min
Histogram: 1 1 0 0 0 0 0 0 0 2
Neighs:              0 ave           0 max           0 min
Histogram: 4 0 0 0 0 0 0 0 0 0

Total # of neighbors = 0
Ave neighs/atom = 0
Ave special neighs/atom = 15.567568
Neighbor list builds = 72
Dangerous builds = 0
unfix           myat1
next            cpt
jump            SELF loop
variable        zdes equal  -15+0.30*(${cpt}-1)
variable        zdes equal  -15+0.30*(22-1)
fix             mytth2 H2 spring tether ${k1} 5 5 ${zdes} 0
fix             mytth2 H2 spring tether 0.5 5 5 ${zdes} 0
fix             mytth2 H2 spring tether 0.5 5 5 -8.7 0
run             10000
Generated 0 of 1 mixed pair_coeff terms from geometric mixing rule
Per MPI rank memory allocation (min/avg/max) = 14.61 | 14.61 | 14.61 Mbytes
   Step          Temp          E_pair         E_mol          TotEng         Press     
   1280000   326.57131      379.06761      18522.297      19368.62      -175.66485    
   1281000   326.77807      373.56795      18532.506      19373.625     -282.94157    
   1282000   319.07409      375.3363       18538.648      19370.512     -250.14235    
   1283000   309.38362      377.92828      18538.992      19359.583     -451.99778    
   1284000   293.05263      379.07752      18533.091      19331.465     -385.58505    
   1285000   303.44946      381.42606      18512.734      19328.332     -129.95437    
   1286000   290.5408       375.15642      18533.433      19324.292     -306.82241    
   1287000   297.27918      375.84664      18521.076      19322.266     -382.63013    
   1288000   297.99192      382.50363      18517.135      19326.002     -261.64935    
   1289000   298.5101       378.1717       18531.642      19336.918     -418.22056    
   1290000   309.05833      373.65097      18531.275      19347.123     -407.12772    
Loop time of 2.52669 on 4 procs for 10000 steps with 481 atoms

Performance: 17.097 ns/day, 1.404 hours/ns, 3957.752 timesteps/s, 1.904 Matom-step/s
99.6% CPU use with 4 MPI tasks x no OpenMP threads

MPI task timing breakdown:
Section |  min time  |  avg time  |  max time  |%varavg| %total
---------------------------------------------------------------
Pair    | 0.34505    | 0.62198    | 0.86956    |  23.7 | 24.62
Bond    | 0.78854    | 0.87997    | 0.9807     |   8.4 | 34.83
Neigh   | 0.013533   | 0.013576   | 0.013619   |   0.0 |  0.54
Comm    | 0.5575     | 0.90724    | 1.1343     |  22.6 | 35.91
Output  | 0.0002475  | 0.00027319 | 0.00033796 |   0.0 |  0.01
Modify  | 0.066382   | 0.068569   | 0.070529   |   0.7 |  2.71
Other   |            | 0.03508    |            |       |  1.39

Nlocal:         120.25 ave         128 max         113 min
Histogram: 1 1 0 0 0 0 0 0 1 1
Nghost:         4176.5 ave        4198 max        4153 min
Histogram: 1 1 0 0 0 0 0 0 0 2
Neighs:              0 ave           0 max           0 min
Histogram: 4 0 0 0 0 0 0 0 0 0

Total # of neighbors = 0
Ave neighs/atom = 0
Ave special neighs/atom = 15.567568
Neighbor list builds = 15
Dangerous builds = 0
fix             myat1 all ave/time 100 10 1000 v_zave v_zdes file simulation_data/abpot/${cpt}.dat
fix             myat1 all ave/time 100 10 1000 v_zave v_zdes file simulation_data/abpot/22.dat
run             50000
Generated 0 of 1 mixed pair_coeff terms from geometric mixing rule
Per MPI rank memory allocation (min/avg/max) = 14.61 | 14.61 | 14.61 Mbytes
   Step          Temp          E_pair         E_mol          TotEng         Press     
   1290000   309.05833      373.65097      18531.275      19347.123     -407.12772    
   1291000   305.69578      375.61723      18550.556      19363.56      -442.46789    
   1292000   305.2661       383.95343      18563.534      19384.259     -299.9011     
   1293000   334.65109      382.54275      18536.806      19398.164     -162.23108    
   1294000   307.68565      376.85774      18579.497      19396.587     -556.03951    
   1295000   325.69265      379.36676      18538.476      19383.841     -332.23661    
   1296000   312.44058      383.80995      18541.238      19372.085     -195.23826    
   1297000   295.7707       379.2          18554.329      19356.714     -358.77242    
   1298000   302.05329      371.41216      18545.893      19349.48      -504.89746    
   1299000   299.83034      379.33261      18530.911      19339.237     -288.6676     
   1300000   303.32293      383.0382       18511.956      19328.985     -140.76644    
   1301000   289.39145      381.0909       18524.998      19320.147     -379.87796    
   1302000   294.96514      377.86866      18528.765      19328.667     -407.58251    
   1303000   306.73073      377.96021      18511.141      19327.968     -443.12409    
   1304000   309.57451      384.99905      18515.168      19343.103     -129.16999    
   1305000   298.6989       382.59314      18555.796      19365.764     -351.11704    
   1306000   310.91122      375.09969      18561.846      19381.794     -604.2096     
   1307000   305.94014      378.90797      18565.674      19382.317     -491.18487    
   1308000   304.55841      387.10005      18545.804      19368.663     -53.914203    
   1309000   301.53952      376.65076      18546.692      19354.782     -676.74725    
   1310000   291.45539      379.73174      18543.495      19340.237     -254.63575    
   1311000   316.47781      377.27376      18510.541      19340.627     -357.47662    
   1312000   294.93601      381.42945      18533.925      19337.346     -222.90636    
   1313000   303.20856      379.6816       18521.012      19334.521     -308.30845    
   1314000   310.97842      371.53593      18518.479      19334.959     -537.7129     
   1315000   285.01169      385.90458      18541.227      19334.923     -159.07442    
   1316000   305.4868       377.7711       18522.452      19337.31      -288.68417    
   1317000   312.8952       371.04187      18530.141      19348.87      -447.09075    
   1318000   297.20757      384.60851      18555.248      19365.098     -162.24278    
   1319000   319.56396      378.61276      18549.381      19385.222     -422.45165    
   1320000   322.5137       387.36194      18533.208      19382.019     -154.96152    
   1321000   297.01491      376.24093      18577.127      19378.333     -592.66424    
   1322000   313.25682      379.1537       18534.659      19362.017     -427.045      
   1323000   305.83136      380.29208      18525.79       19343.662     -293.6047     
   1324000   290.71842      385.20086      18531.751      19332.909     -265.63073    
   1325000   296.9531       376.45911      18528.283      19329.619     -573.13709    
   1326000   298.39189      377.01146      18525.575      19329.522     -483.03446    
   1327000   295.73585      386.60297      18516.036      19325.775     -185.29166    
   1328000   293.60957      380.49483      18532.969      19333.558     -379.43849    
   1329000   296.93295      376.09081      18541.8        19342.739     -380.15125    
   1330000   302.73134      377.34948      18551.139      19361.633     -427.96622    
   1331000   319.02449      380.13882      18543.845      19380.441     -357.51659    
   1332000   308.62764      377.51129      18565.429      19384.521     -358.95015    
   1333000   312.23829      372.78216      18558.386      19377.915     -535.51659    
   1334000   316.58414      373.70522      18539.851      19366.521     -463.72706    
   1335000   299.36434      380.17863      18540.935      19349.441     -362.85036    
   1336000   294.39333      381.9191       18535.227      19338.361     -302.13222    
   1337000   296.36226      377.32402      18538.695      19340.05      -406.65451    
   1338000   313.10032      379.83703      18508.087      19335.904     -402.9575     
   1339000   312.96489      378.91262      18506.474      19333.173     -335.09885    
   1340000   281.34503      386.29297      18539.954      19328.792     -200.55941    
Loop time of 12.7012 on 4 procs for 50000 steps with 481 atoms

Performance: 17.006 ns/day, 1.411 hours/ns, 3936.639 timesteps/s, 1.894 Matom-step/s
99.4% CPU use with 4 MPI tasks x no OpenMP threads

MPI task timing breakdown:
Section |  min time  |  avg time  |  max time  |%varavg| %total
---------------------------------------------------------------
Pair    | 1.72       | 3.131      | 4.3918     |  53.9 | 24.65
Bond    | 3.9729     | 4.4097     | 4.8927     |  17.7 | 34.72
Neigh   | 0.079005   | 0.079134   | 0.079265   |   0.0 |  0.62
Comm    | 2.807      | 4.5425     | 5.7148     |  50.6 | 35.76
Output  | 0.0015856  | 0.0022783  | 0.0025473  |   0.8 |  0.02
Modify  | 0.34825    | 0.35695    | 0.36502    |   1.2 |  2.81
Other   |            | 0.1796     |            |       |  1.41

Nlocal:         120.25 ave         128 max         112 min
Histogram: 1 1 0 0 0 0 0 0 1 1
Nghost:         4179.5 ave        4202 max        4158 min
Histogram: 2 0 0 0 0 0 0 0 0 2
Neighs:              0 ave           0 max           0 min
Histogram: 4 0 0 0 0 0 0 0 0 0

Total # of neighbors = 0
Ave neighs/atom = 0
Ave special neighs/atom = 15.567568
Neighbor list builds = 86
Dangerous builds = 0
unfix           myat1
next            cpt
jump            SELF loop
variable        zdes equal  -15+0.30*(${cpt}-1)
variable        zdes equal  -15+0.30*(23-1)
fix             mytth2 H2 spring tether ${k1} 5 5 ${zdes} 0
fix             mytth2 H2 spring tether 0.5 5 5 ${zdes} 0
fix             mytth2 H2 spring tether 0.5 5 5 -8.4 0
run             10000
Generated 0 of 1 mixed pair_coeff terms from geometric mixing rule
Per MPI rank memory allocation (min/avg/max) = 14.61 | 14.61 | 14.61 Mbytes
   Step          Temp          E_pair         E_mol          TotEng         Press     
   1340000   281.34503      386.29297      18539.954      19328.792     -200.55941    
   1341000   291.93552      379.47799      18539.712      19336.888     -449.57374    
   1342000   293.84482      372.56725      18543.471      19336.469     -621.84407    
   1343000   301.28529      385.58856      18522.197      19338.861     -81.940274    
   1344000   288.61673      385.18779      18544.521      19342.658     -276.12694    
   1345000   296.50709      371.83316      18548.006      19344.078     -611.91547    
   1346000   305.07683      373.99663      18534.275      19344.772     -437.91268    
   1347000   300.69989      383.20886      18531.644      19345.091     -231.62061    
   1348000   301.39731      383.10574      18531.882      19346.223     -222.00276    
   1349000   292.3477       375.86044      18542.872      19337.02      -574.95446    
   1350000   283.942        376.04297      18544.388      19326.692     -490.51829    
Loop time of 2.51707 on 4 procs for 10000 steps with 481 atoms

Performance: 17.163 ns/day, 1.398 hours/ns, 3972.865 timesteps/s, 1.911 Matom-step/s
99.6% CPU use with 4 MPI tasks x no OpenMP threads

MPI task timing breakdown:
Section |  min time  |  avg time  |  max time  |%varavg| %total
---------------------------------------------------------------
Pair    | 0.34332    | 0.62177    | 0.86733    |  23.7 | 24.70
Bond    | 0.79057    | 0.87928    | 0.98059    |   8.3 | 34.93
Neigh   | 0.017991   | 0.017997   | 0.018002   |   0.0 |  0.72
Comm    | 0.53752    | 0.89298    | 1.1311     |  23.2 | 35.48
Output  | 0.00024258 | 0.00027816 | 0.00035267 |   0.0 |  0.01
Modify  | 0.06051    | 0.069617   | 0.078632   |   3.3 |  2.77
Other   |            | 0.03516    |            |       |  1.40

Nlocal:         120.25 ave         127 max         114 min
Histogram: 2 0 0 0 0 0 0 0 0 2
Nghost:           4166 ave        4187 max        4141 min
Histogram: 1 1 0 0 0 0 0 0 0 2
Neighs:              0 ave           0 max           0 min
Histogram: 4 0 0 0 0 0 0 0 0 0

Total # of neighbors = 0
Ave neighs/atom = 0
Ave special neighs/atom = 15.567568
Neighbor list builds = 20
Dangerous builds = 0
fix             myat1 all ave/time 100 10 1000 v_zave v_zdes file simulation_data/abpot/${cpt}.dat
fix             myat1 all ave/time 100 10 1000 v_zave v_zdes file simulation_data/abpot/23.dat
run             50000
Generated 0 of 1 mixed pair_coeff terms from geometric mixing rule
Per MPI rank memory allocation (min/avg/max) = 14.61 | 14.61 | 14.61 Mbytes
   Step          Temp          E_pair         E_mol          TotEng         Press     
   1350000   283.942        376.04297      18544.388      19326.692     -490.51829    
   1351000   279.3169       382.07676      18530.631      19312.352     -349.70274    
   1352000   290.2545       379.79625      18504.44       19299.529     -222.3857     
   1353000   300.23533      370.57239      18506.74       19306.886     -528.12347    
   1354000   309.04804      378.79891      18489.603      19310.584     -320.80377    
   1355000   301.00781      383.44313      18515.478      19329.6       -23.75588     
   1356000   317.70163      374.84583      18524.845      19354.255     -387.52692    
   1357000   317.62115      379.26716      18531.977      19365.693     -414.74398    
   1358000   301.51594      382.02203      18549.88       19363.307     -215.83815    
   1359000   305.33121      381.00276      18531.455      19349.323     -382.6334     
   1360000   284.58526      383.10071      18546.602      19336.884     -310.78865    
   1361000   291.69887      373.64261      18538.493      19329.495     -682.76646    
   1362000   281.66201      387.39339      18532.162      19322.554     -277.3474     
   1363000   289.87141      378.18492      18523.758      19316.688     -387.15899    
   1364000   296.31138      381.07706      18510.83       19315.866     -440.13172    
   1365000   303.50679      376.26437      18511.96       19322.479     -561.5069     
   1366000   300.32298      384.88416      18511.098      19325.681     -166.15938    
   1367000   310.75299      376.64125      18504.013      19325.276     -434.02642    
   1368000   311.72594      379.07873      18508.373      19333.466     -384.73103    
   1369000   301.03941      378.64251      18519.284      19328.65      -427.57162    
   1370000   286.12409      379.20251      18539.409      19327.994     -260.01251    
   1371000   287.03344      379.61927      18535.938      19326.241     -439.91438    
   1372000   296.15744      374.0727       18533.717      19331.529     -461.47656    
   1373000   310.07594      383.33034      18499.391      19326.375     -305.97817    
   1374000   299.62764      380.95387      18502.454      19312.111     -304.14198    
   1375000   288.23185      383.94988      18508.196      19304.545     -246.99936    
   1376000   301.30952      374.08104      18498.124      19303.315     -454.21611    
   1377000   281.05848      380.98269      18519.112      19302.23      -398.34919    
   1378000   273.46518      385.41315      18533.238      19309.922     -154.57525    
   1379000   294.75895      377.08974      18530.949      19329.777     -551.58587    
   1380000   296.78833      378.62504      18540.932      19344.199     -413.07358    
   1381000   325.40829      379.89755      18511.007      19356.495     -356.83441    
   1382000   319.03958      384.44423      18508.462      19349.385     -137.33605    
   1383000   294.12875      378.74592      18545.719      19345.301     -386.84862    
   1384000   305.91502      374.57402      18527.061      19339.335     -432.64108    
   1385000   298.03582      385.79503      18512.743      19324.964     -183.23052    
   1386000   281.21319      384.29476      18513.728      19300.379     -448.78654    
   1387000   271.50366      385.1603       18514.922      19288.546     -359.55728    
   1388000   287.62237      380.6121       18489.152      19281.291     -385.52303    
   1389000   276.18193      379.66228      18506.029      19280.849     -314.49354    
   1390000   279.41449      386.04766      18517.884      19303.715     -101.83755    
   1391000   299.02314      382.18081      18519.213      19329.233     -459.41556    
   1392000   309.93227      379.96439      18515.356      19338.768     -555.83579    
   1393000   313.35869      380.39413      18529.778      19358.522     -393.87393    
   1394000   288.25545      386.5818       18556.548      19355.562     -315.30321    
   1395000   304.59186      381.43577      18537.16       19354.403     -373.29625    
   1396000   310.52392      378.43911      18518.264      19340.997     -451.66104    
   1397000   301.02113      376.02544      18516.125      19322.848     -331.90355    
   1398000   290.99607      382.4793       18514.215      19313.049     -340.15102    
   1399000   276.03341      382.96283      18526.395      19304.303     -368.72214    
   1400000   290.99968      383.419        18507.846      19307.624     -269.72573    
Loop time of 12.6339 on 4 procs for 50000 steps with 481 atoms

Performance: 17.097 ns/day, 1.404 hours/ns, 3957.615 timesteps/s, 1.904 Matom-step/s
99.5% CPU use with 4 MPI tasks x no OpenMP threads

MPI task timing breakdown:
Section |  min time  |  avg time  |  max time  |%varavg| %total
---------------------------------------------------------------
Pair    | 1.7064     | 3.1127     | 4.3767     |  54.0 | 24.64
Bond    | 3.9465     | 4.3939     | 4.8908     |  18.0 | 34.78
Neigh   | 0.095325   | 0.095354   | 0.095377   |   0.0 |  0.75
Comm    | 2.7463     | 4.5107     | 5.6987     |  51.5 | 35.70
Output  | 0.0015108  | 0.0020533  | 0.0022404  |   0.7 |  0.02
Modify  | 0.338      | 0.34411    | 0.35094    |   0.9 |  2.72
Other   |            | 0.1751     |            |       |  1.39

Nlocal:         120.25 ave         124 max         116 min
Histogram: 1 0 1 0 0 0 0 0 1 1
Nghost:        4168.25 ave        4191 max        4147 min
Histogram: 1 1 0 0 0 0 0 1 0 1
Neighs:              0 ave           0 max           0 min
Histogram: 4 0 0 0 0 0 0 0 0 0

Total # of neighbors = 0
Ave neighs/atom = 0
Ave special neighs/atom = 15.567568
Neighbor list builds = 106
Dangerous builds = 0
unfix           myat1
next            cpt
jump            SELF loop
variable        zdes equal  -15+0.30*(${cpt}-1)
variable        zdes equal  -15+0.30*(24-1)
fix             mytth2 H2 spring tether ${k1} 5 5 ${zdes} 0
fix             mytth2 H2 spring tether 0.5 5 5 ${zdes} 0
fix             mytth2 H2 spring tether 0.5 5 5 -8.1 0
run             10000
Generated 0 of 1 mixed pair_coeff terms from geometric mixing rule
Per MPI rank memory allocation (min/avg/max) = 14.61 | 14.61 | 14.61 Mbytes
   Step          Temp          E_pair         E_mol          TotEng         Press     
   1400000   290.99968      383.419        18507.846      19307.624     -269.72573    
   1401000   293.61093      382.2466       18508.363      19310.705     -357.39999    
   1402000   313.59269      382.28321      18492.01       19322.978     -230.73395    
   1403000   306.22953      382.57748      18533.895      19354.623     -232.2236     
   1404000   317.92035      380.61715      18529.644      19365.138     -382.83314    
   1405000   311.19522      383.73542      18531.269      19360.259     -305.37502    
   1406000   303.12774      380.48176      18540.61       19354.803     -337.98146    
   1407000   318.68309      379.57271      18511.92       19347.461     -315.16476    
   1408000   296.36032      379.79432      18520.98       19324.804     -401.61613    
   1409000   280.10007      380.73471      18538.392      19319.891     -223.53037    
   1410000   314.12339      375.48488      18492.125      19317.054     -594.52034    
Loop time of 2.5273 on 4 procs for 10000 steps with 481 atoms

Performance: 17.093 ns/day, 1.404 hours/ns, 3956.799 timesteps/s, 1.903 Matom-step/s
99.6% CPU use with 4 MPI tasks x no OpenMP threads

MPI task timing breakdown:
Section |  min time  |  avg time  |  max time  |%varavg| %total
---------------------------------------------------------------
Pair    | 0.34481    | 0.625      | 0.87586    |  24.0 | 24.73
Bond    | 0.78558    | 0.87861    | 0.98211    |   8.6 | 34.76
Neigh   | 0.018915   | 0.01892    | 0.018927   |   0.0 |  0.75
Comm    | 0.54826    | 0.90185    | 1.1302     |  22.9 | 35.68
Output  | 0.00026583 | 0.00028942 | 0.00034908 |   0.0 |  0.01
Modify  | 0.066625   | 0.067548   | 0.068519   |   0.3 |  2.67
Other   |            | 0.03508    |            |       |  1.39

Nlocal:         120.25 ave         128 max         112 min
Histogram: 1 1 0 0 0 0 0 0 1 1
Nghost:         4167.5 ave        4189 max        4146 min
Histogram: 2 0 0 0 0 0 0 0 0 2
Neighs:              0 ave           0 max           0 min
Histogram: 4 0 0 0 0 0 0 0 0 0

Total # of neighbors = 0
Ave neighs/atom = 0
Ave special neighs/atom = 15.567568
Neighbor list builds = 21
Dangerous builds = 0
fix             myat1 all ave/time 100 10 1000 v_zave v_zdes file simulation_data/abpot/${cpt}.dat
fix             myat1 all ave/time 100 10 1000 v_zave v_zdes file simulation_data/abpot/24.dat
run             50000
Generated 0 of 1 mixed pair_coeff terms from geometric mixing rule
Per MPI rank memory allocation (min/avg/max) = 14.61 | 14.61 | 14.61 Mbytes
   Step          Temp          E_pair         E_mol          TotEng         Press     
   1410000   314.12339      375.48488      18492.125      19317.054     -594.52034    
   1411000   288.47889      377.71737      18522.65       19313.12      -492.7212     
   1412000   301.11217      380.18952      18506.627      19317.644     -300.17246    
   1413000   303.06737      382.54891      18510.089      19326.263     -407.86332    
   1414000   307.92169      375.51992      18531.38       19347.471     -516.61763    
   1415000   311.01862      381.62514      18554.361      19380.988     -334.08576    
   1416000   324.28764      379.21869      18539.164      19382.369     -393.58537    
   1417000   312.53307      382.10319      18545.51       19374.782     -303.49211    
   1418000   302.75497      379.189        18552.359      19364.727     -465.04027    
   1419000   306.68883      379.00613      18530.408      19348.221     -309.70381    
   1420000   301.20066      383.82886      18518.552      19333.335     -234.38686    
   1421000   290.02501      378.7141       18527.35       19321.029     -343.93388    
   1422000   299.13076      373.07795      18523.134      19324.205     -382.10087    
   1423000   290.14303      378.85069      18531.485      19325.469     -427.80541    
   1424000   292.90383      376.72099      18524.649      19320.453     -436.03458    
   1425000   305.93905      375.09394      18520.162      19332.99      -584.3607     
   1426000   307.7169       376.48061      18539.733      19356.491     -427.47676    
   1427000   298.01593      377.62014      18575.524      19379.543     -468.2102     
   1428000   317.95181      382.27345      18547.517      19384.712     -254.79209    
   1429000   300.02236      381.01025      18562.206      19372.485     -479.91053    
   1430000   315.75028      381.17314      18533.001      19365.946     -405.90826    
   1431000   291.37969      377.2075       18557.94       19352.051     -489.87141    
   1432000   292.76484      378.65428      18545.346      19342.885     -390.93491    
   1433000   307.40012      377.83034      18523.033      19340.688     -462.06806    
   1434000   277.24222      377.04698      18554.887      19328.609     -592.94908    
   1435000   298.41513      376.83752      18528.986      19332.793     -382.57303    
   1436000   278.38228      376.75407      18551.835      19326.895     -380.65699    
   1437000   309.14302      370.39452      18516.756      19329.469     -632.8635     
   1438000   298.28719      383.2157       18515.999      19326         -312.56751    
   1439000   304.06269      379.49577      18516.307      19330.852     -442.75144    
   1440000   311.64674      376.86948      18514.827      19337.597     -480.45892    
   1441000   307.96313      382.27075      18525.876      19348.777     -360.09697    
   1442000   317.14194      379.77663      18516.331      19349.871     -285.64474    
   1443000   302.25592      377.93761      18540.834      19351.236     -548.25564    
   1444000   298.51706      382.24339      18543.971      19353.33      -290.84032    
   1445000   307.83889      377.02773      18526.043      19343.523     -497.75688    
   1446000   303.93408      378.60789      18518.097      19331.57      -203.04041    
   1447000   294.64399      379.93209      18513.816      19315.321     -318.3563     
   1448000   296.42163      372.99654      18507.113      19304.227     -437.99995    
   1449000   285.44583      381.32914      18507.794      19297.536     -270.86834    
   1450000   298.17197      375.97502      18507.761      19310.357     -336.77767    
   1451000   303.282        372.75254      18523.508      19330.193     -641.41687    
   1452000   313.86958      380.66146      18530.751      19360.494     -301.94147    
   1453000   312.41529      381.35354      18536.626      19364.98      -245.11128    
   1454000   320.78576      382.11839      18521.606      19362.701     -279.83444    
   1455000   311.50464      374.85002      18534.09       19354.638     -522.85894    
   1456000   306.76475      381.46872      18514.901      19335.285     -349.96455    
   1457000   286.50189      382.52941      18535.55       19328.003     -279.92601    
   1458000   293.27533      383.86311      18521.949      19325.428     -334.19017    
   1459000   289.17594      371.44052      18528.066      19313.257     -625.6855     
   1460000   285.9303       384.02401      18524.742      19317.872     -147.4761     
Loop time of 12.812 on 4 procs for 50000 steps with 481 atoms

Performance: 16.859 ns/day, 1.424 hours/ns, 3902.598 timesteps/s, 1.877 Matom-step/s
99.2% CPU use with 4 MPI tasks x no OpenMP threads

MPI task timing breakdown:
Section |  min time  |  avg time  |  max time  |%varavg| %total
---------------------------------------------------------------
Pair    | 1.7225     | 3.158      | 4.4387     |  54.5 | 24.65
Bond    | 3.9972     | 4.4296     | 4.9143     |  17.5 | 34.57
Neigh   | 0.092666   | 0.092743   | 0.092804   |   0.0 |  0.72
Comm    | 2.8185     | 4.5841     | 5.8048     |  51.5 | 35.78
Output  | 0.0015809  | 0.0022451  | 0.0024925  |   0.8 |  0.02
Modify  | 0.36005    | 0.36263    | 0.36581    |   0.4 |  2.83
Other   |            | 0.1827     |            |       |  1.43

Nlocal:         120.25 ave         125 max         116 min
Histogram: 1 1 0 0 0 0 0 1 0 1
Nghost:         4170.5 ave        4192 max        4149 min
Histogram: 1 1 0 0 0 0 0 0 1 1
Neighs:              0 ave           0 max           0 min
Histogram: 4 0 0 0 0 0 0 0 0 0

Total # of neighbors = 0
Ave neighs/atom = 0
Ave special neighs/atom = 15.567568
Neighbor list builds = 102
Dangerous builds = 0
unfix           myat1
next            cpt
jump            SELF loop
variable        zdes equal  -15+0.30*(${cpt}-1)
variable        zdes equal  -15+0.30*(25-1)
fix             mytth2 H2 spring tether ${k1} 5 5 ${zdes} 0
fix             mytth2 H2 spring tether 0.5 5 5 ${zdes} 0
fix             mytth2 H2 spring tether 0.5 5 5 -7.8 0
run             10000
Generated 0 of 1 mixed pair_coeff terms from geometric mixing rule
Per MPI rank memory allocation (min/avg/max) = 14.61 | 14.61 | 14.61 Mbytes
   Step          Temp          E_pair         E_mol          TotEng         Press     
   1460000   285.9303       384.02401      18524.742      19317.872     -147.4761     
   1461000   304.45111      380.77598      18498.833      19315.214     -202.44372    
   1462000   300.74503      372.58384      18534.924      19337.811     -394.02521    
   1463000   307.50559      377.64842      18542.942      19360.566     -353.65121    
   1464000   306.77996      379.47803      18553.632      19372.048     -352.7134     
   1465000   306.81458      385.62962      18547.545      19372.161     -103.40431    
   1466000   317.93957      378.16147      18527.436      19360.502     -438.65824    
   1467000   290.95016      375.66411      18550.478      19342.43      -469.26246    
   1468000   312.68644      386.51114      18494.266      19328.165     -170.68361    
   1469000   315.36234      380.85942      18491.368      19323.445     -256.42616    
   1470000   292.98985      375.15017      18528.368      19322.725     -461.29601    
Loop time of 2.55546 on 4 procs for 10000 steps with 481 atoms

Performance: 16.905 ns/day, 1.420 hours/ns, 3913.194 timesteps/s, 1.882 Matom-step/s
99.3% CPU use with 4 MPI tasks x no OpenMP threads

MPI task timing breakdown:
Section |  min time  |  avg time  |  max time  |%varavg| %total
---------------------------------------------------------------
Pair    | 0.34252    | 0.62973    | 0.88762    |  24.5 | 24.64
Bond    | 0.7938     | 0.8854     | 0.98838    |   8.2 | 34.65
Neigh   | 0.020786   | 0.020809   | 0.02083    |   0.0 |  0.81
Comm    | 0.55485    | 0.9144     | 1.1584     |  23.4 | 35.78
Output  | 0.00028746 | 0.0003319  | 0.00042929 |   0.0 |  0.01
Modify  | 0.067206   | 0.068662   | 0.070032   |   0.4 |  2.69
Other   |            | 0.03612    |            |       |  1.41

Nlocal:         120.25 ave         128 max         112 min
Histogram: 1 1 0 0 0 0 0 0 1 1
Nghost:        4171.25 ave        4193 max        4148 min
Histogram: 2 0 0 0 0 0 0 0 0 2
Neighs:              0 ave           0 max           0 min
Histogram: 4 0 0 0 0 0 0 0 0 0

Total # of neighbors = 0
Ave neighs/atom = 0
Ave special neighs/atom = 15.567568
Neighbor list builds = 23
Dangerous builds = 0
fix             myat1 all ave/time 100 10 1000 v_zave v_zdes file simulation_data/abpot/${cpt}.dat
fix             myat1 all ave/time 100 10 1000 v_zave v_zdes file simulation_data/abpot/25.dat
run             50000
Generated 0 of 1 mixed pair_coeff terms from geometric mixing rule
Per MPI rank memory allocation (min/avg/max) = 14.61 | 14.61 | 14.61 Mbytes
   Step          Temp          E_pair         E_mol          TotEng         Press     
   1470000   292.98985      375.15017      18528.368      19322.725     -461.29601    
   1471000   291.41756      382.09217      18526.54       19325.589     -354.84023    
   1472000   297.40809      375.99437      18527.78       19329.303     -432.35079    
   1473000   283.2312       386.37985      18539.456      19331.08      -136.30719    
   1474000   309.87292      370.24038      18528.344      19341.947     -595.52131    
   1475000   309.38121      370.77478      18540.531      19353.965     -533.91604    
   1476000   316.85576      386.7497       18539.255      19379.358     -95.199121    
   1477000   328.68686      374.28701      18552.674      19397.243     -613.70054    
   1478000   302.46011      380.86602      18574.328      19387.95      -456.11533    
   1479000   297.42042      381.75232      18561.176      19368.474     -385.0304     
   1480000   300.22759      380.60155      18543.98       19354.143     -382.08966    
   1481000   287.27614      381.96745      18557.33       19350.329     -344.86941    
   1482000   311.42528      375.68126      18526.512      19347.777     -468.5839     
   1483000   313.06078      381.30419      18507.335      19336.563     -221.72152    
   1484000   311.78159      386.58243      18502.038      19334.714     -147.48934    
   1485000   292.568        372.18492      18540.365      19331.153     -652.51037    
   1486000   291.46095      374.17471      18529.177      19320.371     -503.04705    
   1487000   288.99667      378.51155      18520.547      19312.551     -264.50625    
   1488000   285.30159      380.6436       18510.892      19299.742     -268.366      
   1489000   296.32486      373.14001      18504.302      19301.42      -589.72476    
   1490000   282.78         377.85782      18520.794      19303.251     -440.14021    
   1491000   289.75704      382.81401      18520.472      19317.867     -250.56281    
   1492000   297.94176      379.64024      18526.016      19331.948     -272.07461    
   1493000   313.06934      372.01059      18531.18       19351.127     -649.62053    
   1494000   306.40037      375.00306      18545.279      19358.677     -437.63424    
   1495000   315.66097      389.64823      18519.885      19361.177     -128.42576    
   1496000   293.48366      373.43861      18560.835      19354.187     -651.94291    
   1497000   298.25575      372.60751      18541.808      19341.157     -485.66387    
   1498000   302.92509      375.81218      18513.27       19322.504     -443.31396    
   1499000   280.83243      381.99623      18524.234      19308.042     -205.38974    
   1500000   285.4751       377.53252      18521.929      19307.916     -462.16356    
   1501000   294.55434      375.55941      18514.571      19311.575     -572.47601    
   1502000   293.75288      377.41444      18514.607      19312.319     -281.11497    
   1503000   295.49173      383.63505      18507.745      19314.166     -245.6094     
   1504000   297.19019      378.21723      18522.741      19326.174     -450.32961    
   1505000   292.64333      373.82485      18548.471      19341.006     -518.64686    
   1506000   299.40542      384.70713      18529.783      19342.876     -235.68411    
   1507000   305.98602      379.0763       18537.686      19354.564     -245.56992    
   1508000   313.68352      374.21364      18530.671      19353.7       -496.9        
   1509000   302.30318      374.76791      18538.268      19345.568     -470.09223    
   1510000   289.4389       384.15325      18537.555      19335.834     -96.986189    
   1511000   300.87621      381.96005      18508.282      19320.732     -355.08594    
   1512000   297.1935       373.51122      18510.445      19309.178     -544.9603     
   1513000   286.88927      379.31018      18504.336      19294.124     -238.46934    
   1514000   310.00918      379.99104      18480.18       19303.728     -216.23534    
   1515000   312.27455      379.89255      18487.353      19314.044     -161.39461    
   1516000   310.43321      368.64334      18515.126      19327.934     -615.48765    
   1517000   301.39114      380.17911      18536.853      19348.26      -453.12397    
   1518000   317.15376      384.60742      18508.642      19347.03      -67.490861    
   1519000   300.94818      376.70963      18543.725      19351.028     -559.36696    
   1520000   297.39074      374.65379      18550.311      19350.469     -495.14606    
Loop time of 12.867 on 4 procs for 50000 steps with 481 atoms

Performance: 16.787 ns/day, 1.430 hours/ns, 3885.924 timesteps/s, 1.869 Matom-step/s
99.1% CPU use with 4 MPI tasks x no OpenMP threads

MPI task timing breakdown:
Section |  min time  |  avg time  |  max time  |%varavg| %total
---------------------------------------------------------------
Pair    | 1.726      | 3.1652     | 4.458      |  54.8 | 24.60
Bond    | 3.9966     | 4.433      | 4.9181     |  17.4 | 34.45
Neigh   | 0.13252    | 0.13268    | 0.13284    |   0.0 |  1.03
Comm    | 2.8254     | 4.5893     | 5.8031     |  51.5 | 35.67
Output  | 0.001662   | 0.0024347  | 0.0027126  |   0.9 |  0.02
Modify  | 0.34585    | 0.36093    | 0.37493    |   2.1 |  2.81
Other   |            | 0.1834     |            |       |  1.43

Nlocal:         120.25 ave         126 max         114 min
Histogram: 1 0 1 0 0 0 0 0 1 1
Nghost:         4158.5 ave        4185 max        4136 min
Histogram: 1 1 0 0 0 0 1 0 0 1
Neighs:              0 ave           0 max           0 min
Histogram: 4 0 0 0 0 0 0 0 0 0

Total # of neighbors = 0
Ave neighs/atom = 0
Ave special neighs/atom = 15.567568
Neighbor list builds = 145
Dangerous builds = 0
unfix           myat1
next            cpt
jump            SELF loop
variable        zdes equal  -15+0.30*(${cpt}-1)
variable        zdes equal  -15+0.30*(26-1)
fix             mytth2 H2 spring tether ${k1} 5 5 ${zdes} 0
fix             mytth2 H2 spring tether 0.5 5 5 ${zdes} 0
fix             mytth2 H2 spring tether 0.5 5 5 -7.5 0
run             10000
Generated 0 of 1 mixed pair_coeff terms from geometric mixing rule
Per MPI rank memory allocation (min/avg/max) = 14.61 | 14.61 | 14.61 Mbytes
   Step          Temp          E_pair         E_mol          TotEng         Press     
   1520000   297.39074      374.65379      18550.311      19350.469     -495.14606    
   1521000   304.71341      378.76896      18527.599      19342.349     -247.40121    
   1522000   298.23485      376.9156       18524.238      19327.865     -310.62255    
   1523000   295.59208      375.53029      18524.52       19322.98      -497.74266    
   1524000   276.82429      377.14418      18536.688      19309.91      -377.57623    
   1525000   271.0302       376.10161      18524.586      19288.474     -530.14045    
   1526000   276.31948      385.5447       18500.419      19281.318     -200.06137    
   1527000   283.15641      374.19311      18505.448      19284.778     -593.52501    
   1528000   297.21036      376.37147      18503.689      19305.306     -514.15723    
   1529000   285.23176      387.66666      18520.543      19316.317     -178.62858    
   1530000   291.40358      376.7475       18543.709      19337.393     -446.42321    
Loop time of 2.51965 on 4 procs for 10000 steps with 481 atoms

Performance: 17.145 ns/day, 1.400 hours/ns, 3968.800 timesteps/s, 1.909 Matom-step/s
99.7% CPU use with 4 MPI tasks x no OpenMP threads

MPI task timing breakdown:
Section |  min time  |  avg time  |  max time  |%varavg| %total
---------------------------------------------------------------
Pair    | 0.34154    | 0.62357    | 0.86917    |  23.9 | 24.75
Bond    | 0.78833    | 0.87902    | 0.97905    |   8.1 | 34.89
Neigh   | 0.024359   | 0.024369   | 0.024377   |   0.0 |  0.97
Comm    | 0.54857    | 0.88951    | 1.1224     |  22.6 | 35.30
Output  | 0.00027083 | 0.000298   | 0.00036883 |   0.0 |  0.01
Modify  | 0.063126   | 0.067986   | 0.072707   |   1.7 |  2.70
Other   |            | 0.0349     |            |       |  1.38

Nlocal:         120.25 ave         128 max         113 min
Histogram: 2 0 0 0 0 0 0 0 0 2
Nghost:        4168.25 ave        4190 max        4146 min
Histogram: 2 0 0 0 0 0 0 0 0 2
Neighs:              0 ave           0 max           0 min
Histogram: 4 0 0 0 0 0 0 0 0 0

Total # of neighbors = 0
Ave neighs/atom = 0
Ave special neighs/atom = 15.567568
Neighbor list builds = 27
Dangerous builds = 0
fix             myat1 all ave/time 100 10 1000 v_zave v_zdes file simulation_data/abpot/${cpt}.dat
fix             myat1 all ave/time 100 10 1000 v_zave v_zdes file simulation_data/abpot/26.dat
run             50000
Generated 0 of 1 mixed pair_coeff terms from geometric mixing rule
Per MPI rank memory allocation (min/avg/max) = 14.61 | 14.61 | 14.61 Mbytes
   Step          Temp          E_pair         E_mol          TotEng         Press     
   1530000   291.40358      376.7475       18543.709      19337.393     -446.42321    
   1531000   316.64592      379.57261      18510.325      19342.951     -451.11344    
   1532000   296.66185      380.56253      18539.802      19344.825     -376.45242    
   1533000   301.97037      379.31425      18528.731      19340.101     -334.33732    
   1534000   307.1733       382.99889      18521.757      19344.256     -110.45412    
   1535000   301.79961      367.61014      18540.45       19339.872     -679.27214    
   1536000   293.65967      373.30751      18537.629      19331.102     -483.32713    
   1537000   299.94151      384.07076      18508.556      19321.78      -55.624779    
   1538000   296.4267       375.30239      18512.64       19312.067     -585.46112    
   1539000   292.40381      375.33213      18512.963      19306.664     -490.76801    
   1540000   291.62518      381.97707      18509.949      19309.18      -341.5852     
   1541000   301.2514       385.16146      18496.07       19312.259     -71.111823    
   1542000   317.55128      373.32778      18507.13       19334.806     -426.46437    
   1543000   304.08998      377.84255      18539.071      19352.002     -472.755      
   1544000   302.1255       389.59865      18540.431      19362.308      29.301479    
   1545000   315.22282      381.24959      18533.858      19366.125     -327.29298    
   1546000   324.74211      376.26842      18516.87       19357.776     -476.52225    
   1547000   303.49861      378.74943      18527.574      19340.566     -216.66359    
   1548000   296.01971      381.46767      18521.173      19326.182     -400.73188    
   1549000   301.61181      378.72609      18503.746      19314.015     -274.80684    
   1550000   301.71548      372.58578      18506.271      19310.547     -389.34117    
   1551000   302.23295      375.8934       18512.217      19320.542     -356.50634    
   1552000   276.59975      387.26542      18535.919      19318.94      -181.58339    
   1553000   296.76982      378.18264      18521.504      19324.302     -439.56408    
   1554000   298.30706      373.29323      18529.783      19329.89      -637.78594    
   1555000   303.11785      378.43732      18520.116      19332.251     -388.67467    
   1556000   301.12563      376.55359      18520.081      19327.482     -354.829      
   1557000   308.9779       384.04118      18513.32       19339.443     -168.55257    
   1558000   319.13351      371.8943       18519.602      19348.109     -559.90855    
   1559000   317.00153      381.77509      18511.113      19346.45      -252.24745    
   1560000   292.03866      383.15924      18546.833      19347.837     -224.54098    
   1561000   300.13666      379.02554      18539.511      19347.968     -472.37603    
   1562000   292.8825       373.45752      18556.85       19349.36      -382.01979    
   1563000   285.55126      381.09909      18557.033      19346.696     -278.63479    
   1564000   300.36066      379.41656      18542.613      19351.782     -410.98082    
   1565000   285.50852      379.97998      18545.367      19333.849     -382.44043    
   1566000   289.35981      380.5733       18534.395      19328.981     -439.30914    
   1567000   313.82409      378.47535      18491.993      19319.484     -344.52697    
   1568000   288.77869      380.42595      18519.453      19313.06      -393.05472    
   1569000   285.31889      378.95084      18520.693      19307.875     -531.6441     
   1570000   298.83524      379.86481      18512.042      19319.477     -456.40757    
   1571000   300.9246       383.3152       18530.558      19344.433     -177.44271    
   1572000   307.14511      375.47435      18546.577      19361.511     -574.23374    
   1573000   316.97729      378.5391       18540.683      19372.75      -491.98505    
   1574000   313.34886      385.89202      18528.044      19362.272     -221.90978    
   1575000   313.5182       375.83238      18521.08       19345.491     -452.04181    
   1576000   301.3623       374.06389      18538.373      19343.622     -430.42177    
   1577000   294.25782      377.65001      18533.069      19331.739     -246.10751    
   1578000   301.35251      383.61962      18505.385      19320.177     -287.49235    
   1579000   289.38582      381.98913      18522.194      19318.233     -175.3194     
   1580000   290.92892      377.38404      18526.451      19320.093     -522.84397    
Loop time of 12.7388 on 4 procs for 50000 steps with 481 atoms

Performance: 16.956 ns/day, 1.415 hours/ns, 3925.003 timesteps/s, 1.888 Matom-step/s
99.2% CPU use with 4 MPI tasks x no OpenMP threads

MPI task timing breakdown:
Section |  min time  |  avg time  |  max time  |%varavg| %total
---------------------------------------------------------------
Pair    | 1.7021     | 3.1366     | 4.3955     |  54.3 | 24.62
Bond    | 3.9696     | 4.4095     | 4.8987     |  17.3 | 34.61
Neigh   | 0.12604    | 0.12612    | 0.12621    |   0.0 |  0.99
Comm    | 2.8003     | 4.5303     | 5.7535     |  51.2 | 35.56
Output  | 0.0015427  | 0.0021807  | 0.0024324  |   0.8 |  0.02
Modify  | 0.33664    | 0.35598    | 0.37368    |   2.8 |  2.79
Other   |            | 0.1782     |            |       |  1.40

Nlocal:         120.25 ave         126 max         115 min
Histogram: 2 0 0 0 0 0 0 0 1 1
Nghost:        4162.25 ave        4187 max        4136 min
Histogram: 1 0 1 0 0 0 0 1 0 1
Neighs:              0 ave           0 max           0 min
Histogram: 4 0 0 0 0 0 0 0 0 0

Total # of neighbors = 0
Ave neighs/atom = 0
Ave special neighs/atom = 15.567568
Neighbor list builds = 139
Dangerous builds = 0
unfix           myat1
next            cpt
jump            SELF loop
variable        zdes equal  -15+0.30*(${cpt}-1)
variable        zdes equal  -15+0.30*(27-1)
fix             mytth2 H2 spring tether ${k1} 5 5 ${zdes} 0
fix             mytth2 H2 spring tether 0.5 5 5 ${zdes} 0
fix             mytth2 H2 spring tether 0.5 5 5 -7.2 0
run             10000
Generated 0 of 1 mixed pair_coeff terms from geometric mixing rule
Per MPI rank memory allocation (min/avg/max) = 14.61 | 14.61 | 14.61 Mbytes
   Step          Temp          E_pair         E_mol          TotEng         Press     
   1580000   290.92892      377.38404      18526.451      19320.093     -522.84397    
   1581000   289.07646      380.80537      18528.156      19322.569     -501.52192    
   1582000   295.70969      391.94029      18516.348      19331.386     -61.907302    
   1583000   305.43919      381.30886      18518.378      19336.706     -315.71179    
   1584000   305.55495      374.06002      18524.362      19335.606     -542.22727    
   1585000   297.75366      385.88835      18526.758      19338.668     -210.97241    
   1586000   290.18032      385.08304      18539.273      19339.543     -236.34915    
   1587000   289.92793      381.69326      18540.835      19337.354     -569.93271    
   1588000   304.85782      375.74863      18531.402      19343.338     -437.96727    
   1589000   325.20021      379.68537      18504.205      19349.183     -252.61624    
   1590000   303.81124      383.16529      18522.19       19340.045     -193.32975    
Loop time of 2.53581 on 4 procs for 10000 steps with 481 atoms

Performance: 17.036 ns/day, 1.409 hours/ns, 3943.516 timesteps/s, 1.897 Matom-step/s
99.6% CPU use with 4 MPI tasks x no OpenMP threads

MPI task timing breakdown:
Section |  min time  |  avg time  |  max time  |%varavg| %total
---------------------------------------------------------------
Pair    | 0.34183    | 0.62601    | 0.88864    |  24.6 | 24.69
Bond    | 0.79141    | 0.87823    | 0.97675    |   8.0 | 34.63
Neigh   | 0.024194   | 0.024217   | 0.024238   |   0.0 |  0.95
Comm    | 0.54551    | 0.90364    | 1.1411     |  23.3 | 35.64
Output  | 0.00025658 | 0.00028181 | 0.00034379 |   0.0 |  0.01
Modify  | 0.06519    | 0.068418   | 0.07154    |   1.1 |  2.70
Other   |            | 0.03501    |            |       |  1.38

Nlocal:         120.25 ave         129 max         111 min
Histogram: 1 1 0 0 0 0 0 0 0 2
Nghost:         4173.5 ave        4200 max        4150 min
Histogram: 2 0 0 0 0 0 0 0 1 1
Neighs:              0 ave           0 max           0 min
Histogram: 4 0 0 0 0 0 0 0 0 0

Total # of neighbors = 0
Ave neighs/atom = 0
Ave special neighs/atom = 15.567568
Neighbor list builds = 27
Dangerous builds = 0
fix             myat1 all ave/time 100 10 1000 v_zave v_zdes file simulation_data/abpot/${cpt}.dat
fix             myat1 all ave/time 100 10 1000 v_zave v_zdes file simulation_data/abpot/27.dat
run             50000
Generated 0 of 1 mixed pair_coeff terms from geometric mixing rule
Per MPI rank memory allocation (min/avg/max) = 14.61 | 14.61 | 14.61 Mbytes
   Step          Temp          E_pair         E_mol          TotEng         Press     
   1590000   303.81124      383.16529      18522.19       19340.045     -193.32975    
   1591000   298.05112      376.2234       18534.525      19337.197     -452.01906    
   1592000   305.56585      377.48776      18507.171      19321.859     -400.96526    
   1593000   285.72747      376.75829      18522.291      19307.865     -269.57138    
   1594000   293.12028      379.98072      18508.591      19307.965     -268.40814    
   1595000   290.72301      372.96894      18522.518      19311.45      -583.48093    
   1596000   287.25887      380.56967      18524.616      19316.192     -262.87865    
   1597000   295.85166      381.6698       18527.341      19332.312     -262.91206    
   1598000   309.16519      376.99356      18541.035      19360.379     -542.35966    
   1599000   294.53413      378.56293      18563.044      19363.023     -359.67145    
   1600000   306.05975      382.22696      18546.727      19366.861     -319.82721    
   1601000   307.06503      381.13526      18541.248      19361.729     -294.11158    
   1602000   301.00904      374.12466      18548.199      19353.004     -531.16239    
   1603000   314.93435      375.81276      18519.249      19345.666     -365.6329     
   1604000   296.76472      385.87142      18519.521      19330         -266.99964    
   1605000   294.89336      379.50382      18514.97       19316.404     -282.18169    
   1606000   292.90986      375.25314      18513.972      19308.317     -553.1835     
   1607000   285.70566      379.1542       18529.974      19317.912     -365.20217    
   1608000   302.45942      379.85337      18527.83       19340.439     -350.94044    
   1609000   310.61979      383.42808      18534.173      19362.032     -244.24758    
   1610000   324.05554      372.32288      18540.433      19376.411     -456.1399     
   1611000   283.48456      374.06095      18589.212      19368.879     -466.72014    
   1612000   305.65278      384.71316      18539.051      19361.089     -260.57598    
   1613000   308.56322      380.94236      18530.854      19353.285     -199.45663    
   1614000   311.82029      378.05799      18520.22       19344.427     -403.40917    
   1615000   292.38408      379.39223      18522.333      19320.065     -483.86476    
   1616000   296.62258      379.75289      18508.359      19312.516     -328.37607    
   1617000   287.79739      382.19766      18518.855      19312.83      -362.89374    
   1618000   302.2135       376.50412      18506.923      19315.831     -451.08823    
   1619000   309.97544      375.94768      18507.944      19327.401     -523.338      
   1620000   296.57428      385.2967       18538.795      19348.427     -158.86661    
   1621000   306.29571      381.51996      18546.106      19365.87      -566.8966     
   1622000   321.92515      377.76801      18531.07       19369.445     -589.92131    
   1623000   315.29214      381.39617      18534.675      19367.188     -244.20478    
   1624000   306.95165      377.67588      18538.159      19355.018     -430.15456    
   1625000   307.8276       370.95853      18537.256      19348.651     -535.61248    
   1626000   294.85353      373.63595      18551.372      19346.881     -393.4227     
   1627000   307.31546      377.94448      18513.237      19330.885     -478.0636     
   1628000   294.03684      377.73698      18526.798      19325.24      -376.91481    
   1629000   300.01502      376.67763      18520.622      19326.558     -407.36493    
   1630000   292.48942      375.95848      18534.637      19329.086     -405.31623    
   1631000   300.05486      385.23663      18513.302      19327.853     -248.58399    
   1632000   302.64402      383.77317      18524.878      19341.671     -213.77324    
   1633000   300.07396      374.13333      18546.377      19349.853     -670.96851    
   1634000   307.16911      381.26183      18535.307      19356.063     -428.1863     
   1635000   311.19749      382.01212      18541.234      19368.504     -462.17954    
   1636000   309.01608      384.11962      18541.935      19368.191     -167.84425    
   1637000   313.8055       381.97368      18532.757      19363.72      -312.57951    
   1638000   312.59332      371.75132      18518.202      19337.208     -562.54167    
   1639000   297.88721      383.53616      18509.291      19319.04      -314.1097     
   1640000   290.45354      384.25444      18515.143      19314.975     -21.607529    
Loop time of 12.6768 on 4 procs for 50000 steps with 481 atoms

Performance: 17.039 ns/day, 1.409 hours/ns, 3944.202 timesteps/s, 1.897 Matom-step/s
99.6% CPU use with 4 MPI tasks x no OpenMP threads

MPI task timing breakdown:
Section |  min time  |  avg time  |  max time  |%varavg| %total
---------------------------------------------------------------
Pair    | 1.7117     | 3.1217     | 4.38       |  53.9 | 24.63
Bond    | 3.9366     | 4.3966     | 4.9164     |  18.6 | 34.68
Neigh   | 0.11884    | 0.11887    | 0.11891    |   0.0 |  0.94
Comm    | 2.7319     | 4.5155     | 5.7126     |  52.0 | 35.62
Output  | 0.0014587  | 0.0020498  | 0.0022823  |   0.8 |  0.02
Modify  | 0.33846    | 0.34658    | 0.35538    |   1.2 |  2.73
Other   |            | 0.1755     |            |       |  1.38

Nlocal:         120.25 ave         125 max         116 min
Histogram: 2 0 0 0 0 0 0 0 1 1
Nghost:        4166.75 ave        4189 max        4145 min
Histogram: 1 1 0 0 0 0 0 0 1 1
Neighs:              0 ave           0 max           0 min
Histogram: 4 0 0 0 0 0 0 0 0 0

Total # of neighbors = 0
Ave neighs/atom = 0
Ave special neighs/atom = 15.567568
Neighbor list builds = 132
Dangerous builds = 0
unfix           myat1
next            cpt
jump            SELF loop
variable        zdes equal  -15+0.30*(${cpt}-1)
variable        zdes equal  -15+0.30*(28-1)
fix             mytth2 H2 spring tether ${k1} 5 5 ${zdes} 0
fix             mytth2 H2 spring tether 0.5 5 5 ${zdes} 0
fix             mytth2 H2 spring tether 0.5 5 5 -6.9 0
run             10000
Generated 0 of 1 mixed pair_coeff terms from geometric mixing rule
Per MPI rank memory allocation (min/avg/max) = 14.61 | 14.61 | 14.61 Mbytes
   Step          Temp          E_pair         E_mol          TotEng         Press     
   1640000   290.45354      384.25444      18515.143      19314.975     -21.607529    
   1641000   291.00457      369.8952       18528.153      19314.415     -554.27838    
   1642000   307.50155      371.84505      18507.1        19318.915     -401.96875    
   1643000   302.85014      381.11073      18506.546      19320.972     -60.903939    
   1644000   309.03377      378.03659      18516.828      19337.027     -265.44375    
   1645000   308.64663      374.79105      18529.569      19345.968     -395.41915    
   1646000   310.50525      380.30753      18521.553      19346.128     -363.57105    
   1647000   310.81408      380.08656      18525.591      19350.387     -321.42601    
   1648000   312.19725      386.07442      18514.419      19347.182     -3.5298978    
   1649000   312.33029      372.12418      18532.112      19351.115     -525.53519    
   1650000   290.44375      377.57077      18547.044      19340.179     -377.22551    
Loop time of 2.52619 on 4 procs for 10000 steps with 481 atoms

Performance: 17.101 ns/day, 1.403 hours/ns, 3958.527 timesteps/s, 1.904 Matom-step/s
98.9% CPU use with 4 MPI tasks x no OpenMP threads

MPI task timing breakdown:
Section |  min time  |  avg time  |  max time  |%varavg| %total
---------------------------------------------------------------
Pair    | 0.34111    | 0.62594    | 0.85734    |  23.6 | 24.78
Bond    | 0.79149    | 0.88005    | 0.97599    |   7.9 | 34.84
Neigh   | 0.021539   | 0.021545   | 0.021548   |   0.0 |  0.85
Comm    | 0.57029    | 0.89417    | 1.1322     |  21.9 | 35.40
Output  | 0.00038104 | 0.00041612 | 0.00051458 |   0.0 |  0.02
Modify  | 0.065288   | 0.068418   | 0.07147    |   1.1 |  2.71
Other   |            | 0.03566    |            |       |  1.41

Nlocal:         120.25 ave         126 max         114 min
Histogram: 2 0 0 0 0 0 0 0 0 2
Nghost:        4171.25 ave        4193 max        4150 min
Histogram: 2 0 0 0 0 0 0 0 0 2
Neighs:              0 ave           0 max           0 min
Histogram: 4 0 0 0 0 0 0 0 0 0

Total # of neighbors = 0
Ave neighs/atom = 0
Ave special neighs/atom = 15.567568
Neighbor list builds = 24
Dangerous builds = 0
fix             myat1 all ave/time 100 10 1000 v_zave v_zdes file simulation_data/abpot/${cpt}.dat
fix             myat1 all ave/time 100 10 1000 v_zave v_zdes file simulation_data/abpot/28.dat
run             50000
Generated 0 of 1 mixed pair_coeff terms from geometric mixing rule
Per MPI rank memory allocation (min/avg/max) = 14.61 | 14.61 | 14.61 Mbytes
   Step          Temp          E_pair         E_mol          TotEng         Press     
   1650000   290.44375      377.57077      18547.044      19340.179     -377.22551    
   1651000   300.07599      383.85548      18522.469      19335.67      -171.97445    
   1652000   294.75198      381.12798      18528.709      19331.565     -248.52756    
   1653000   283.48745      374.48727      18555.068      19335.166     -508.13331    
   1654000   292.17959      379.73973      18525.842      19323.629     -373.65058    
   1655000   281.94925      382.83982      18517.572      19303.822     -193.04008    
   1656000   295.45171      374.69004      18505.163      19302.582     -377.43243    
   1657000   293.56859      375.84946      18504.331      19300.215     -404.6027     
   1658000   296.24254      374.96569      18506.082      19304.908     -393.07566    
   1659000   278.82932      390.78767      18530.418      19320.151      152.4362     
   1660000   303.80337      371.96968      18534.089      19340.737     -550.33414    
   1661000   297.59673      379.6821       18541.386      19346.866     -363.3049     
   1662000   315.01966      384.36492      18519.225      19354.316     -173.24149    
   1663000   304.37785      381.01159      18546.101      19362.613     -381.582      
   1664000   283.33347      379.22072      18575.858      19360.469     -432.23221    
   1665000   300.45714      374.24734      18539.847      19343.985     -593.31183    
   1666000   275.33681      389.69642      18544.631      19328.276     -282.42032    
   1667000   282.95096      382.73487      18529.797      19317.375     -213.04       
   1668000   277.15059      369.84995      18536.312      19302.706     -680.70191    
   1669000   285.8968       376.25103      18512.682      19297.991     -446.94804    
   1670000   295.99924      386.73105      18491.483      19301.726     -138.97049    
   1671000   281.78157      382.22735      18532.099      19317.496     -378.89932    
   1672000   308.40317      369.25555      18534.743      19345.258     -687.85583    
   1673000   304.82492      379.42827      18537.974      19353.543     -406.86023    
   1674000   319.12272      386.24619      18506.616      19349.459      24.947301    
   1675000   302.53777      383.16273      18532.636      19348.666     -336.30272    
   1676000   303.34079      366.59456      18545.211      19345.822     -778.31603    
   1677000   310.83219      378.84203      18503.942      19327.519     -290.28174    
   1678000   299.58676      383.90074      18502.618      19315.164     -96.971662    
   1679000   282.78312      374.52362      18530.588      19309.715     -472.04669    
   1680000   291.89548      372.10355      18523.38       19313.124     -581.50573    
   1681000   284.41518      376.88029      18530.69       19314.509     -394.19556    
   1682000   286.48429      388.0788       18529.983      19327.96      -202.08732    
   1683000   300.16177      375.9474       18547.97       19353.386     -416.06969    
   1684000   306.63223      371.95713      18554.835      19365.518     -722.09614    
   1685000   311.43928      384.90879      18536.194      19366.706     -240.76938    
   1686000   311.94126      385.21326      18528.715      19360.251     -56.785906    
   1687000   311.38741      377.56352      18522.8        19345.893     -455.49534    
   1688000   304.24952      373.94899      18522.201      19331.466     -629.80834    
   1689000   285.09701      384.62421      18529.902      19322.44      -234.15018    
   1690000   311.72972      381.20602      18495.476      19322.701     -147.99781    
   1691000   294.64112      376.71792      18532.645      19330.932     -529.91875    
   1692000   299.53765      376.2917       18520.859      19325.725     -533.00303    
   1693000   290.69834      385.5457       18525.518      19326.992     -212.9003     
   1694000   304.58167      383.48769      18517.66       19336.94      -310.5593     
   1695000   294.87502      373.58292      18554.296      19349.783     -562.76791    
   1696000   308.77406      378.24956      18537.867      19357.907     -325.16948    
   1697000   305.66581      377.00477      18548.984      19363.332     -338.0658     
   1698000   314.8544       382.17945      18541.191      19373.861     -221.36831    
   1699000   320.48332      373.83534      18547.58       19379.959     -649.491      
   1700000   320.63245      377.3896       18534.97       19371.117     -532.27957    
Loop time of 12.6168 on 4 procs for 50000 steps with 481 atoms

Performance: 17.120 ns/day, 1.402 hours/ns, 3962.963 timesteps/s, 1.906 Matom-step/s
99.6% CPU use with 4 MPI tasks x no OpenMP threads

MPI task timing breakdown:
Section |  min time  |  avg time  |  max time  |%varavg| %total
---------------------------------------------------------------
Pair    | 1.7111     | 3.1173     | 4.3642     |  53.6 | 24.71
Bond    | 3.9327     | 4.3943     | 4.898      |  18.3 | 34.83
Neigh   | 0.12126    | 0.1213     | 0.12134    |   0.0 |  0.96
Comm    | 2.7178     | 4.4613     | 5.6352     |  51.3 | 35.36
Output  | 0.0014673  | 0.0020341  | 0.0022602  |   0.7 |  0.02
Modify  | 0.33742    | 0.34546    | 0.35257    |   1.0 |  2.74
Other   |            | 0.1751     |            |       |  1.39

Nlocal:         120.25 ave         127 max         113 min
Histogram: 2 0 0 0 0 0 0 0 0 2
Nghost:         4152.5 ave        4181 max        4123 min
Histogram: 1 0 1 0 0 0 0 1 0 1
Neighs:              0 ave           0 max           0 min
Histogram: 4 0 0 0 0 0 0 0 0 0

Total # of neighbors = 0
Ave neighs/atom = 0
Ave special neighs/atom = 15.567568
Neighbor list builds = 135
Dangerous builds = 0
unfix           myat1
next            cpt
jump            SELF loop
variable        zdes equal  -15+0.30*(${cpt}-1)
variable        zdes equal  -15+0.30*(29-1)
fix             mytth2 H2 spring tether ${k1} 5 5 ${zdes} 0
fix             mytth2 H2 spring tether 0.5 5 5 ${zdes} 0
fix             mytth2 H2 spring tether 0.5 5 5 -6.6 0
run             10000
Generated 0 of 1 mixed pair_coeff terms from geometric mixing rule
Per MPI rank memory allocation (min/avg/max) = 14.61 | 14.61 | 14.61 Mbytes
   Step          Temp          E_pair         E_mol          TotEng         Press     
   1700000   320.63245      377.3896       18534.97       19371.117     -532.27957    
   1701000   302.14242      388.2539       18526.729      19347.285     -95.710067    
   1702000   289.76941      377.01619      18538.18       19329.795     -587.13452    
   1703000   305.18358      374.80505      18517.068      19328.526     -589.98176    
   1704000   296.23407      374.94399      18516.432      19315.224     -559.89114    
   1705000   294.40614      387.62348      18511.14       19319.996     -168.83776    
   1706000   292.67723      374.76292      18533.034      19326.556     -512.45175    
   1707000   294.69539      369.39666      18552.406      19343.449     -869.24133    
   1708000   294.97798      383.74226      18545.402      19351.195     -251.09288    
   1709000   307.14534      386.38666      18539.395      19365.242     -248.11064    
   1710000   309.95615      376.80723      18558.01       19378.299     -486.09351    
Loop time of 2.53675 on 4 procs for 10000 steps with 481 atoms

Performance: 17.030 ns/day, 1.409 hours/ns, 3942.059 timesteps/s, 1.896 Matom-step/s
99.6% CPU use with 4 MPI tasks x no OpenMP threads

MPI task timing breakdown:
Section |  min time  |  avg time  |  max time  |%varavg| %total
---------------------------------------------------------------
Pair    | 0.33945    | 0.62607    | 0.88455    |  24.6 | 24.68
Bond    | 0.79215    | 0.87894    | 0.97544    |   7.7 | 34.65
Neigh   | 0.029537   | 0.029546   | 0.029558   |   0.0 |  1.16
Comm    | 0.54377    | 0.89938    | 1.1469     |  23.5 | 35.45
Output  | 0.00023467 | 0.0002603  | 0.00032567 |   0.0 |  0.01
Modify  | 0.066497   | 0.067586   | 0.068578   |   0.3 |  2.66
Other   |            | 0.03496    |            |       |  1.38

Nlocal:         120.25 ave         128 max         112 min
Histogram: 1 1 0 0 0 0 0 0 0 2
Nghost:         4155.5 ave        4178 max        4133 min
Histogram: 2 0 0 0 0 0 0 0 0 2
Neighs:              0 ave           0 max           0 min
Histogram: 4 0 0 0 0 0 0 0 0 0

Total # of neighbors = 0
Ave neighs/atom = 0
Ave special neighs/atom = 15.567568
Neighbor list builds = 33
Dangerous builds = 0
fix             myat1 all ave/time 100 10 1000 v_zave v_zdes file simulation_data/abpot/${cpt}.dat
fix             myat1 all ave/time 100 10 1000 v_zave v_zdes file simulation_data/abpot/29.dat
run             50000
Generated 0 of 1 mixed pair_coeff terms from geometric mixing rule
Per MPI rank memory allocation (min/avg/max) = 14.61 | 14.61 | 14.61 Mbytes
   Step          Temp          E_pair         E_mol          TotEng         Press     
   1710000   309.95615      376.80723      18558.01       19378.299     -486.09351    
   1711000   307.9872       370.82951      18564.803      19376.297     -613.45445    
   1712000   319.34521      379.97585      18517.842      19354.733     -423.08968    
   1713000   301.70503      385.74957      18502.217      19319.643     -53.633642    
   1714000   283.26192      366.9027       18533.433      19305.623     -762.12903    
   1715000   295.08524      370.93569      18516.563      19309.703     -624.62392    
   1716000   295.69484      381.8308       18506.147      19311.055     -141.26289    
   1717000   303.05429      378.90423      18510.825      19323.336     -388.31379    
   1718000   302.41432      375.1507       18528.762      19336.603     -561.0593     
   1719000   310.36579      377.46067      18527.466      19348.995     -613.13175    
   1720000   306.29404      380.65957      18531.025      19349.927     -176.75938    
   1721000   308.68833      382.70783      18530.776      19355.151     -227.08159    
   1722000   316.92661      370.5492       18526.577      19350.581     -583.54091    
   1723000   306.76854      378.81439      18511.758      19329.493     -379.20937    
   1724000   290.97672      385.90378      18504.015      19306.245     -28.298714    
   1725000   290.41676      376.90299      18506.425      19298.854     -449.25457    
   1726000   292.75368      377.33436      18506.178      19302.381     -408.4091     
   1727000   292.44678      380.30764      18506.355      19305.092     -373.04982    
   1728000   311.99826      381.92887      18491.031      19319.363     -303.24809    
   1729000   308.72416      376.27356      18512.726      19330.719     -362.1035     
   1730000   306.3057       370.07882      18533.943      19342.28      -528.11368    
   1731000   293.35345      380.03245      18543.619      19343.378     -320.6842     
   1732000   299.21527      377.47299      18534.279      19339.866     -296.18996    
   1733000   290.46553      376.14675      18540.635      19332.376     -472.69128    
   1734000   286.44785      369.86762      18552.148      19331.862     -656.51432    
   1735000   294.63115      376.08638      18530.056      19327.697     -404.32742    
   1736000   283.93721      383.49852      18540.54       19330.293     -194.13451    
   1737000   304.80892      373.20011      18519.683      19329         -640.90147    
   1738000   306.59242      376.50443      18503.23       19318.404     -421.96887    
   1739000   296.49412      384.57116      18494.805      19303.596     -79.738998    
   1740000   288.66678      380.40405      18504.046      19297.471     -340.96813    
   1741000   282.7847       377.46536      18510.096      19292.166     -530.01506    
   1742000   285.6748       378.89648      18510.956      19298.593     -436.57202    
   1743000   305.91199      383.99669      18491.778      19313.47      -334.20096    
   1744000   310.93414      381.00623      18508.595      19334.483     -188.89877    
   1745000   310.79465      377.94686      18521.145      19343.773     -244.14901    
   1746000   316.62158      375.07701      18518.596      19346.692     -557.19163    
   1747000   295.69336      382.03696      18541.101      19346.212     -316.58199    
   1748000   308.62075      380.00437      18518.678      19340.253     -348.48457    
   1749000   285.19687      374.46511      18549.165      19331.686     -583.70302    
   1750000   289.25174      380.33036      18521.269      19315.457     -317.57461    
   1751000   288.33812      376.1694       18515.708      19304.429     -335.88047    
   1752000   287.2533       373.81043      18496.464      19281.274     -465.09171    
   1753000   271.40614      377.59087      18504.808      19270.723     -264.49746    
   1754000   262.59872      374.19742      18511.656      19261.576     -462.27034    
   1755000   293.03346      375.99035      18488.512      19283.772     -297.84245    
   1756000   281.17468      380.00352      18531.632      19313.937     -406.57347    
   1757000   309.17227      374.35121      18510.422      19327.134     -497.66424    
   1758000   302.19405      382.73659      18512.444      19327.557     -327.16374    
   1759000   308.13606      380.7565       18508.974      19330.608     -316.64245    
   1760000   311.61217      374.79793      18524.138      19344.787     -359.36045    
Loop time of 12.8224 on 4 procs for 50000 steps with 481 atoms

Performance: 16.846 ns/day, 1.425 hours/ns, 3899.428 timesteps/s, 1.876 Matom-step/s
99.2% CPU use with 4 MPI tasks x no OpenMP threads

MPI task timing breakdown:
Section |  min time  |  avg time  |  max time  |%varavg| %total
---------------------------------------------------------------
Pair    | 1.7315     | 3.141      | 4.3867     |  53.5 | 24.50
Bond    | 3.9511     | 4.4226     | 4.9415     |  18.9 | 34.49
Neigh   | 0.12997    | 0.13003    | 0.13011    |   0.0 |  1.01
Comm    | 2.818      | 4.581      | 5.7528     |  51.0 | 35.73
Output  | 0.0015959  | 0.0022601  | 0.0024968  |   0.8 |  0.02
Modify  | 0.36057    | 0.36384    | 0.36594    |   0.4 |  2.84
Other   |            | 0.1817     |            |       |  1.42

Nlocal:         120.25 ave         129 max         112 min
Histogram: 2 0 0 0 0 0 0 0 1 1
Nghost:        4162.25 ave        4191 max        4135 min
Histogram: 1 1 0 0 0 0 0 1 0 1
Neighs:              0 ave           0 max           0 min
Histogram: 4 0 0 0 0 0 0 0 0 0

Total # of neighbors = 0
Ave neighs/atom = 0
Ave special neighs/atom = 15.567568
Neighbor list builds = 143
Dangerous builds = 0
unfix           myat1
next            cpt
jump            SELF loop
variable        zdes equal  -15+0.30*(${cpt}-1)
variable        zdes equal  -15+0.30*(30-1)
fix             mytth2 H2 spring tether ${k1} 5 5 ${zdes} 0
fix             mytth2 H2 spring tether 0.5 5 5 ${zdes} 0
fix             mytth2 H2 spring tether 0.5 5 5 -6.3 0
run             10000
Generated 0 of 1 mixed pair_coeff terms from geometric mixing rule
Per MPI rank memory allocation (min/avg/max) = 14.61 | 14.61 | 14.61 Mbytes
   Step          Temp          E_pair         E_mol          TotEng         Press     
   1760000   311.61217      374.79793      18524.138      19344.787     -359.36045    
   1761000   298.5331       384.82837      18531.063      19343.029     -215.65378    
   1762000   310.05234      376.67262      18524.682      19344.974     -516.38728    
   1763000   305.94287      384.85808      18523.557      19346.155     -142.56946    
   1764000   280.7534       382.3463       18554.471      19338.517     -327.10661    
   1765000   293.44932      380.81998      18530.989      19331.672     -376.43569    
   1766000   301.17269      383.71082      18513.646      19328.272     -222.2918     
   1767000   297.88476      380.76453      18511.917      19318.892     -288.1668     
   1768000   303.71267      376.16397      18493.015      19303.727     -409.43533    
   1769000   286.33965      379.61128      18509.318      19298.62      -316.98561    
   1770000   290.54936      380.46301      18499.946      19296.124     -404.69079    
Loop time of 2.54782 on 4 procs for 10000 steps with 481 atoms

Performance: 16.956 ns/day, 1.415 hours/ns, 3924.931 timesteps/s, 1.888 Matom-step/s
99.6% CPU use with 4 MPI tasks x no OpenMP threads

MPI task timing breakdown:
Section |  min time  |  avg time  |  max time  |%varavg| %total
---------------------------------------------------------------
Pair    | 0.34004    | 0.62669    | 0.89137    |  24.8 | 24.60
Bond    | 0.79178    | 0.87982    | 0.98035    |   8.0 | 34.53
Neigh   | 0.027753   | 0.027765   | 0.027774   |   0.0 |  1.09
Comm    | 0.53918    | 0.90852    | 1.159      |  24.0 | 35.66
Output  | 0.00026004 | 0.00029036 | 0.00036975 |   0.0 |  0.01
Modify  | 0.06524    | 0.069657   | 0.07406    |   1.6 |  2.73
Other   |            | 0.03506    |            |       |  1.38

Nlocal:         120.25 ave         127 max         114 min
Histogram: 2 0 0 0 0 0 0 0 0 2
Nghost:        4183.25 ave        4207 max        4159 min
Histogram: 1 1 0 0 0 0 0 0 1 1
Neighs:              0 ave           0 max           0 min
Histogram: 4 0 0 0 0 0 0 0 0 0

Total # of neighbors = 0
Ave neighs/atom = 0
Ave special neighs/atom = 15.567568
Neighbor list builds = 31
Dangerous builds = 0
fix             myat1 all ave/time 100 10 1000 v_zave v_zdes file simulation_data/abpot/${cpt}.dat
fix             myat1 all ave/time 100 10 1000 v_zave v_zdes file simulation_data/abpot/30.dat
run             50000
Generated 0 of 1 mixed pair_coeff terms from geometric mixing rule
Per MPI rank memory allocation (min/avg/max) = 14.61 | 14.61 | 14.61 Mbytes
   Step          Temp          E_pair         E_mol          TotEng         Press     
   1770000   290.54936      380.46301      18499.946      19296.124     -404.69079    
   1771000   289.39339      379.93235      18521.436      19315.429     -353.0754     
   1772000   293.84879      377.67609      18538.017      19336.129     -381.42211    
   1773000   306.41247      381.50225      18531.819      19351.733     -409.10913    
   1774000   310.65844      379.76074      18536.258      19360.506     -403.8467     
   1775000   300.97469      380.75939      18542.496      19353.887     -295.96436    
   1776000   312.54399      378.59434      18520.736      19346.515     -600.45645    
   1777000   297.10489      381.72256      18530.46       19337.277     -254.9417     
   1778000   293.84812      381.11496      18528.604      19330.153     -295.87259    
   1779000   280.10836      379.9747       18526.725      19307.476     -540.77612    
   1780000   303.71585      374.45729      18488.488      19297.498     -457.8767     
   1781000   280.42108      375.59948      18511.772      19288.595     -407.45069    
   1782000   289.48559      380.82543      18499.064      19294.082     -285.34867    
   1783000   294.27313      373.52027      18528.915      19323.478     -655.81031    
   1784000   303.46665      380.48893      18535.145      19349.83      -286.25059    
   1785000   309.03405      376.70556      18541.876      19360.745     -597.16604    
   1786000   308.01998      380.55227      18540.751      19362.015     -310.19283    
   1787000   305.64166      381.34977      18534.404      19353.063     -361.23829    
   1788000   314.16293      375.89099      18514.118      19339.509     -370.92032    
   1789000   299.78476      379.95384      18507.558      19316.441     -428.75949    
   1790000   296.55443      379.78197      18515.668      19319.757     -273.93261    
   1791000   302.47498      382.83875      18498.819      19314.435     -370.19492    
   1792000   293.00073      378.56076      18511.807      19309.59      -338.80597    
   1793000   277.98344      378.04534      18531.866      19307.647     -491.70074    
   1794000   308.38329      380.80967      18504.416      19326.457     -260.31933    
   1795000   302.64037      374.93369      18537.555      19345.503     -500.07086    
   1796000   292.98134      379.54362      18560.965      19359.703     -305.6013     
   1797000   316.93955      378.11624      18541.512      19373.102     -161.46112    
   1798000   308.57002      376.33249      18546.021      19363.852     -468.45847    
   1799000   312.96347      382.12186      18521.096      19351.003     -211.80793    
   1800000   311.03909      384.05409      18507.987      19337.072     -175.87096    
   1801000   294.27842      374.99624      18520.897      19316.943     -631.40654    
   1802000   301.18514      382.02694      18511.649      19324.608     -45.178663    
   1803000   307.05634      374.99334      18509.118      19323.444     -522.21292    
   1804000   300.51399      378.06234      18521.733      19329.767     -293.2045     
   1805000   308.56276      378.7229       18515.267      19335.478     -315.27192    
   1806000   299.69394      371.40371      18535.288      19335.49      -637.98023    
   1807000   299.97974      380.395        18526.924      19336.526     -372.14679    
   1808000   300.59506      376.22122      18537.397      19343.706     -479.21451    
   1809000   323.58247      378.31862      18528.173      19369.47      -396.17146    
   1810000   329.77538      380.92736      18529.882      19382.648     -308.531      
   1811000   316.37193      373.66386      18556.081      19382.407     -724.61963    
   1812000   310.56579      385.52357      18538.097      19367.974     -6.513716     
   1813000   295.00613      375.31214      18544.379      19341.783     -518.22306    
   1814000   301.12609      382.71543      18517.434      19330.998     -311.73476    
   1815000   293.11355      380.49262      18527.831      19327.707     -383.39048    
   1816000   293.2881       381.61591      18523.922      19325.171     -153.71012    
   1817000   294.86301      383.0526       18523.006      19327.946     -268.11656    
   1818000   294.00391      373.15972      18538.252      19332.069     -594.12615    
   1819000   320.86728      382.12635      18500.143      19341.362     -202.56293    
   1820000   306.42899      375.99619      18534.113      19348.544     -532.55229    
Loop time of 12.8338 on 4 procs for 50000 steps with 481 atoms

Performance: 16.830 ns/day, 1.426 hours/ns, 3895.949 timesteps/s, 1.874 Matom-step/s
99.4% CPU use with 4 MPI tasks x no OpenMP threads

MPI task timing breakdown:
Section |  min time  |  avg time  |  max time  |%varavg| %total
---------------------------------------------------------------
Pair    | 1.73       | 3.1554     | 4.4582     |  54.7 | 24.59
Bond    | 3.9606     | 4.4159     | 4.9176     |  18.5 | 34.41
Neigh   | 0.13628    | 0.13633    | 0.13638    |   0.0 |  1.06
Comm    | 2.793      | 4.5885     | 5.7634     |  51.7 | 35.75
Output  | 0.0015166  | 0.002244   | 0.0025301  |   0.9 |  0.02
Modify  | 0.34627    | 0.35611    | 0.36487    |   1.3 |  2.77
Other   |            | 0.1793     |            |       |  1.40

Nlocal:         120.25 ave         130 max         111 min
Histogram: 2 0 0 0 0 0 0 0 0 2
Nghost:         4164.5 ave        4193 max        4134 min
Histogram: 1 0 1 0 0 0 0 0 1 1
Neighs:              0 ave           0 max           0 min
Histogram: 4 0 0 0 0 0 0 0 0 0

Total # of neighbors = 0
Ave neighs/atom = 0
Ave special neighs/atom = 15.567568
Neighbor list builds = 149
Dangerous builds = 0
unfix           myat1
next            cpt
jump            SELF loop
variable        zdes equal  -15+0.30*(${cpt}-1)
variable        zdes equal  -15+0.30*(31-1)
fix             mytth2 H2 spring tether ${k1} 5 5 ${zdes} 0
fix             mytth2 H2 spring tether 0.5 5 5 ${zdes} 0
fix             mytth2 H2 spring tether 0.5 5 5 -6 0
run             10000
Generated 0 of 1 mixed pair_coeff terms from geometric mixing rule
Per MPI rank memory allocation (min/avg/max) = 14.61 | 14.61 | 14.61 Mbytes
   Step          Temp          E_pair         E_mol          TotEng         Press     
   1820000   306.42899      375.99619      18534.113      19348.544     -532.55229    
   1821000   305.39183      381.2695       18551.541      19369.762     -318.59384    
   1822000   304.98774      379.56551      18574.557      19390.496     -292.63797    
   1823000   319.7378       372.70436      18557.888      19388.07      -704.13869    
   1824000   314.46281      381.51626      18539.875      19371.321     -234.64873    
   1825000   315.13944      379.73176      18535.625      19366.255     -160.23039    
   1826000   300.63067      374.60343      18540.948      19345.691     -550.83831    
   1827000   311.89211      380.13337      18515.864      19342.25      -273.8732     
   1828000   299.45703      377.35914      18535.129      19340.948     -484.06483    
   1829000   299.71138      384.93178      18520.883      19334.639     -228.96334    
   1830000   303.03693      377.35903      18526.144      19337.084     -441.6698     
Loop time of 2.5764 on 4 procs for 10000 steps with 481 atoms

Performance: 16.768 ns/day, 1.431 hours/ns, 3881.384 timesteps/s, 1.867 Matom-step/s
99.3% CPU use with 4 MPI tasks x no OpenMP threads

MPI task timing breakdown:
Section |  min time  |  avg time  |  max time  |%varavg| %total
---------------------------------------------------------------
Pair    | 0.34495    | 0.63303    | 0.90062    |  24.9 | 24.57
Bond    | 0.79006    | 0.88385    | 0.98717    |   8.2 | 34.31
Neigh   | 0.027538   | 0.027554   | 0.027578   |   0.0 |  1.07
Comm    | 0.55271    | 0.92242    | 1.1674     |  23.9 | 35.80
Output  | 0.00026321 | 0.00028811 | 0.00035008 |   0.0 |  0.01
Modify  | 0.07185    | 0.073281   | 0.074634   |   0.4 |  2.84
Other   |            | 0.03598    |            |       |  1.40

Nlocal:         120.25 ave         125 max         115 min
Histogram: 1 0 1 0 0 0 0 0 0 2
Nghost:        4171.25 ave        4194 max        4150 min
Histogram: 1 1 0 0 0 0 0 0 1 1
Neighs:              0 ave           0 max           0 min
Histogram: 4 0 0 0 0 0 0 0 0 0

Total # of neighbors = 0
Ave neighs/atom = 0
Ave special neighs/atom = 15.567568
Neighbor list builds = 30
Dangerous builds = 0
fix             myat1 all ave/time 100 10 1000 v_zave v_zdes file simulation_data/abpot/${cpt}.dat
fix             myat1 all ave/time 100 10 1000 v_zave v_zdes file simulation_data/abpot/31.dat
run             50000
Generated 0 of 1 mixed pair_coeff terms from geometric mixing rule
Per MPI rank memory allocation (min/avg/max) = 14.61 | 14.61 | 14.61 Mbytes
   Step          Temp          E_pair         E_mol          TotEng         Press     
   1830000   303.03693      377.35903      18526.144      19337.084     -441.6698     
   1831000   305.48865      374.15001      18523.178      19334.417     -430.90041    
   1832000   315.07211      381.06131      18496.753      19328.616     -267.25854    
   1833000   295.70491      376.01238      18524.122      19323.226     -554.17177    
   1834000   283.63135      378.26201      18531.596      19315.674     -471.25106    
   1835000   285.54231      374.62631      18538.346      19321.523     -540.51684    
   1836000   287.75563      380.74557      18523.755      19316.218     -270.94572    
   1837000   302.23151      385.49252      18507.598      19325.52      -250.76957    
   1838000   292.12309      374.44331      18535.684      19328.094     -625.84583    
   1839000   305.37521      377.24074      18528.813      19342.981     -428.40387    
   1840000   321.57466      379.88243      18520.473      19360.461     -248.90063    
   1841000   308.2895       374.0547       18552.001      19367.153     -554.10213    
   1842000   323.62886      377.79961      18525.117      19365.961     -435.20952    
   1843000   299.04744      376.07925      18542.991      19346.944     -526.09117    
   1844000   289.67743      382.7571       18525.924      19323.148     -332.73919    
   1845000   292.44681      381.36407      18508.432      19308.226     -296.03869    
   1846000   298.94824      376.02083      18505.925      19309.678     -304.63609    
   1847000   286.64818      384.29624      18515.051      19309.48      -273.28942    
   1848000   295.06144      381.03808      18512.171      19315.38      -121.05629    
   1849000   296.51692      376.9307       18528.108      19329.291     -464.21485    
   1850000   313.15298      376.81107      18519.111      19343.978     -465.77167    
   1851000   291.04828      384.81614      18544.608      19345.853     -254.13561    
   1852000   302.17351      381.7803       18532.751      19346.878     -282.76538    
   1853000   298.49413      379.86045      18543.12       19350.062     -422.10009    
   1854000   302.31653      376.12783      18531.467      19340.146     -377.60793    
   1855000   290.29288      384.36028      18538.105      19337.813     -184.71063    
   1856000   300.85591      375.52356      18524.423      19330.407     -555.59147    
   1857000   300.8451       377.59331      18520.338      19328.377     -532.36201    
   1858000   311.01846      370.28614      18518.477      19333.765     -606.46099    
   1859000   292.50065      382.82065      18532.187      19333.515     -309.1844     
   1860000   298.81077      378.09197      18528.54       19334.167     -366.71107    
   1861000   297.24121      370.24697      18535.955      19331.492     -722.97579    
   1862000   304.62547      376.8175       18520.827      19333.499     -453.34454    
   1863000   291.90846      380.73541      18534.805      19333.2       -356.67813    
   1864000   315.30224      378.79108      18523.172      19353.094     -405.13274    
   1865000   318.75809      374.12         18539.003      19369.198     -614.59882    
   1866000   304.13888      380.19961      18556.432      19371.79      -561.0597     
   1867000   322.51788      380.1396       18521.476      19363.071     -359.00415    
   1868000   298.9092       381.93767      18538.686      19348.3       -202.91918    
   1869000   291.35167      368.01461      18545.044      19329.921     -764.79607    
   1870000   284.5618       376.45478      18537.413      19321.016     -435.49468    
   1871000   295.37856      386.22668      18508.086      19316.937     -140.36931    
   1872000   302.06424      373.88342      18515.724      19321.798     -412.85846    
   1873000   297.18004      369.63973      18524.979      19319.821     -579.40915    
   1874000   319.40344      383.75698      18486.954      19327.71      -136.4874     
   1875000   309.70971      379.09292      18508.731      19330.953     -210.1978     
   1876000   303.68968      375.20078      18542.732      19352.448     -620.78249    
   1877000   295.61084      375.92287      18568.409      19367.289     -376.29861    
   1878000   326.2711       383.40706      18542.733      19392.965     -348.62743    
   1879000   329.24346      388.53588      18563.44       19423.054     -166.50397    
   1880000   331.76397      370.8609       18563.835      19409.38      -592.26559    
Loop time of 12.7609 on 4 procs for 50000 steps with 481 atoms

Performance: 16.927 ns/day, 1.418 hours/ns, 3918.208 timesteps/s, 1.885 Matom-step/s
99.6% CPU use with 4 MPI tasks x no OpenMP threads

MPI task timing breakdown:
Section |  min time  |  avg time  |  max time  |%varavg| %total
---------------------------------------------------------------
Pair    | 1.7103     | 3.1307     | 4.4502     |  55.2 | 24.53
Bond    | 3.9456     | 4.4003     | 4.9067     |  18.1 | 34.48
Neigh   | 0.1385     | 0.1385     | 0.13851    |   0.0 |  1.09
Comm    | 2.7345     | 4.5616     | 5.7753     |  53.0 | 35.75
Output  | 0.0014589  | 0.0021016  | 0.0023301  |   0.8 |  0.02
Modify  | 0.34766    | 0.35135    | 0.35604    |   0.5 |  2.75
Other   |            | 0.1764     |            |       |  1.38

Nlocal:         120.25 ave         128 max         113 min
Histogram: 2 0 0 0 0 0 0 0 0 2
Nghost:         4155.5 ave        4185 max        4124 min
Histogram: 1 0 0 1 0 0 0 1 0 1
Neighs:              0 ave           0 max           0 min
Histogram: 4 0 0 0 0 0 0 0 0 0

Total # of neighbors = 0
Ave neighs/atom = 0
Ave special neighs/atom = 15.567568
Neighbor list builds = 154
Dangerous builds = 0
unfix           myat1
next            cpt
jump            SELF loop
variable        zdes equal  -15+0.30*(${cpt}-1)
variable        zdes equal  -15+0.30*(32-1)
fix             mytth2 H2 spring tether ${k1} 5 5 ${zdes} 0
fix             mytth2 H2 spring tether 0.5 5 5 ${zdes} 0
fix             mytth2 H2 spring tether 0.5 5 5 -5.7 0
run             10000
Generated 0 of 1 mixed pair_coeff terms from geometric mixing rule
Per MPI rank memory allocation (min/avg/max) = 14.61 | 14.61 | 14.61 Mbytes
   Step          Temp          E_pair         E_mol          TotEng         Press     
   1880000   331.76397      370.8609       18563.835      19409.38      -592.26559    
   1881000   327.68658      377.51941      18547.879      19394.249     -501.65434    
   1882000   303.12285      386.14216      18547.912      19367.759     -228.88178    
   1883000   307.58903      384.62924      18535.644      19360.368     -24.538792    
   1884000   301.69972      373.36596      18541.447      19346.482     -599.57624    
   1885000   305.88787      377.60011      18520.562      19335.823     -338.12015    
   1886000   295.82113      386.60985      18501.629      19311.496     -202.61394    
   1887000   298.99733      383.15114      18500.78       19311.733     -65.042041    
   1888000   295.71657      371.14566      18516.789      19311.043     -758.22016    
   1889000   299.16999      374.02924      18511.914      19313.992     -567.38385    
   1890000   306.06891      387.76686      18505.626      19331.313     -91.120964    
Loop time of 2.55113 on 4 procs for 10000 steps with 481 atoms

Performance: 16.934 ns/day, 1.417 hours/ns, 3919.833 timesteps/s, 1.885 Matom-step/s
99.6% CPU use with 4 MPI tasks x no OpenMP threads

MPI task timing breakdown:
Section |  min time  |  avg time  |  max time  |%varavg| %total
---------------------------------------------------------------
Pair    | 0.34224    | 0.62285    | 0.8868     |  24.6 | 24.41
Bond    | 0.79102    | 0.8793     | 0.97836    |   8.1 | 34.47
Neigh   | 0.023454   | 0.023459   | 0.023465   |   0.0 |  0.92
Comm    | 0.55442    | 0.92132    | 1.1584     |  23.4 | 36.11
Output  | 0.00024662 | 0.00027426 | 0.00034387 |   0.0 |  0.01
Modify  | 0.064396   | 0.068866   | 0.073156   |   1.5 |  2.70
Other   |            | 0.03506    |            |       |  1.37

Nlocal:         120.25 ave         126 max         114 min
Histogram: 1 0 0 0 1 0 1 0 0 1
Nghost:        4186.25 ave        4211 max        4166 min
Histogram: 2 0 0 0 0 0 0 1 0 1
Neighs:              0 ave           0 max           0 min
Histogram: 4 0 0 0 0 0 0 0 0 0

Total # of neighbors = 0
Ave neighs/atom = 0
Ave special neighs/atom = 15.567568
Neighbor list builds = 26
Dangerous builds = 0
fix             myat1 all ave/time 100 10 1000 v_zave v_zdes file simulation_data/abpot/${cpt}.dat
fix             myat1 all ave/time 100 10 1000 v_zave v_zdes file simulation_data/abpot/32.dat
run             50000
Generated 0 of 1 mixed pair_coeff terms from geometric mixing rule
Per MPI rank memory allocation (min/avg/max) = 14.61 | 14.61 | 14.61 Mbytes
   Step          Temp          E_pair         E_mol          TotEng         Press     
   1890000   306.06891      387.76686      18505.626      19331.313     -91.120964    
   1891000   300.67475      378.8664       18543.029      19352.098     -458.45015    
   1892000   312.26733      369.98137      18550.054      19366.824     -663.27585    
   1893000   314.53373      379.39909      18537.101      19366.531     -358.84538    
   1894000   303.65383      385.50924      18536.95       19356.923     -340.51748    
   1895000   300.23916      376.5869       18551.568      19357.733     -389.50961    
   1896000   301.01689      367.53632      18544.248      19342.476     -879.66315    
   1897000   302.53509      378.63868      18509.991      19321.493     -297.97138    
   1898000   280.15567      386.5212       18524.283      19311.648     -132.00902    
   1899000   293.5465       376.16043      18521.999      19318.163     -398.91381    
   1900000   305.7743       367.42963      18521.236      19326.164     -763.17619    
   1901000   299.25272      381.73595      18518.88       19328.784     -292.18049    
   1902000   305.72948      388.01497      18512.682      19338.132     -104.98405    
   1903000   312.32405      375.85122      18529.846      19352.567     -561.66043    
   1904000   306.62316      372.53328      18548.552      19359.798     -712.9944     
   1905000   298.37595      386.60751      18536.427      19349.947     -144.09827    
   1906000   301.55357      390.15549      18520.735      19342.35       41.67287     
   1907000   291.80221      373.95713      18537.18       19328.645     -512.1243     
   1908000   297.72083      373.15368      18513.086      19312.215     -706.36373    
   1909000   288.98484      388.40582      18500.982      19302.865      59.485663    
   1910000   278.06294      385.48262      18515.288      19298.62      -173.73603    
   1911000   296.73035      368.18652      18513.895      19306.64      -762.41199    
   1912000   299.70935      377.80491      18512.295      19318.921     -357.58225    
   1913000   302.85459      387.8702       18514.864      19336.056     -204.5824     
   1914000   313.71659      377.17149      18518.103      19344.136     -389.95151    
   1915000   309.19476      374.29647      18536.947      19353.636     -470.43111    
   1916000   305.57925      376.52576      18534.921      19348.666     -530.9744     
   1917000   287.84085      390.72939      18527.093      19329.662      86.818378    
   1918000   294.71829      376.59613      18525.257      19323.533     -456.77026    
   1919000   296.29128      368.76809      18524.9        19317.598     -752.07446    
   1920000   297.46763      386.98969      18490.753      19303.356     -169.95916    
   1921000   291.06173      388.02172      18501.407      19305.876     -10.644382    
   1922000   295.65815      375.39889      18517.05       19315.473     -532.94344    
   1923000   292.4265       373.17203      18537.382      19328.955     -737.49174    
   1924000   309.54221      388.25546      18512.091      19343.236      33.03782     
   1925000   303.74832      393.01342      18526.869      19354.482      247.80416    
   1926000   331.21369      368.81004      18526.289      19368.996     -745.79378    
   1927000   316.67036      373.03793      18532.778      19358.904     -423.75224    
   1928000   308.31437      389.91829      18512.801      19343.852     -10.823795    
   1929000   284.48911      382.60054      18536.213      19325.858     -280.91949    
   1930000   291.15173      371.62968      18527.564      19315.771     -625.50922    
   1931000   294.95521      375.1237       18517.677      19314.819     -535.50224    
   1932000   280.63654      385.9207       18525.929      19313.382     -304.08436    
   1933000   284.15419      391.46368      18522.441      19320.469     -29.872767    
   1934000   306.25032      365.48119      18524.298      19327.958     -775.44394    
   1935000   312.66237      374.1582       18511.216      19332.728     -525.28876    
   1936000   312.73947      389.51581      18502.288      19339.268     -54.459412    
   1937000   300.9767       381.71098      18542.517      19354.862     -333.97605    
   1938000   319.09661      371.30354      18544.038      19371.902     -814.05525    
   1939000   327.8123       377.73276      18535.006      19381.769     -325.13342    
   1940000   343.06779      390.70154      18500.879      19382.438     -17.942188    
Loop time of 12.7179 on 4 procs for 50000 steps with 481 atoms

Performance: 16.984 ns/day, 1.413 hours/ns, 3931.463 timesteps/s, 1.891 Matom-step/s
99.5% CPU use with 4 MPI tasks x no OpenMP threads

MPI task timing breakdown:
Section |  min time  |  avg time  |  max time  |%varavg| %total
---------------------------------------------------------------
Pair    | 1.6996     | 3.1207     | 4.4263     |  55.1 | 24.54
Bond    | 3.96       | 4.4041     | 4.8973     |  17.6 | 34.63
Neigh   | 0.13296    | 0.13298    | 0.13301    |   0.0 |  1.05
Comm    | 2.7421     | 4.5358     | 5.7511     |  52.5 | 35.66
Output  | 0.0015305  | 0.0025737  | 0.0029838  |   1.2 |  0.02
Modify  | 0.33991    | 0.34648    | 0.35174    |   0.8 |  2.72
Other   |            | 0.1753     |            |       |  1.38

Nlocal:         120.25 ave         130 max         110 min
Histogram: 1 0 1 0 0 0 0 0 1 1
Nghost:         4173.5 ave        4198 max        4150 min
Histogram: 2 0 0 0 0 0 0 0 0 2
Neighs:              0 ave           0 max           0 min
Histogram: 4 0 0 0 0 0 0 0 0 0

Total # of neighbors = 0
Ave neighs/atom = 0
Ave special neighs/atom = 15.567568
Neighbor list builds = 149
Dangerous builds = 0
unfix           myat1
next            cpt
jump            SELF loop
variable        zdes equal  -15+0.30*(${cpt}-1)
variable        zdes equal  -15+0.30*(33-1)
fix             mytth2 H2 spring tether ${k1} 5 5 ${zdes} 0
fix             mytth2 H2 spring tether 0.5 5 5 ${zdes} 0
fix             mytth2 H2 spring tether 0.5 5 5 -5.4 0
run             10000
Generated 0 of 1 mixed pair_coeff terms from geometric mixing rule
Per MPI rank memory allocation (min/avg/max) = 14.61 | 14.61 | 14.61 Mbytes
   Step          Temp          E_pair         E_mol          TotEng         Press     
   1940000   343.06779      390.70154      18500.879      19382.438     -17.942188    
   1941000   320.81498      380.67547      18527.988      19367.682     -386.17854    
   1942000   313.49371      370.82531      18529.735      19349.104     -681.36322    
   1943000   304.79469      379.36137      18513.063      19328.521     -308.73943    
   1944000   299.39836      384.86909      18498.661      19311.906     -179.84825    
   1945000   289.69139      374.76114      18528.306      19317.554     -515.2947     
   1946000   307.17309      373.32403      18508.682      19321.506     -642.76582    
   1947000   297.75925      379.89603      18508.994      19314.921     -267.60678    
   1948000   288.61558      383.40223      18527.483      19323.833     -270.84856    
   1949000   307.19852      371.83062      18518.43       19329.797     -648.34477    
   1950000   312.86754      372.84904      18522.778      19343.275     -529.46956    
Loop time of 2.53508 on 4 procs for 10000 steps with 481 atoms

Performance: 17.041 ns/day, 1.408 hours/ns, 3944.651 timesteps/s, 1.897 Matom-step/s
99.6% CPU use with 4 MPI tasks x no OpenMP threads

MPI task timing breakdown:
Section |  min time  |  avg time  |  max time  |%varavg| %total
---------------------------------------------------------------
Pair    | 0.34325    | 0.62345    | 0.87916    |  24.2 | 24.59
Bond    | 0.78624    | 0.87921    | 0.97966    |   8.3 | 34.68
Neigh   | 0.028772   | 0.02878    | 0.028786   |   0.0 |  1.14
Comm    | 0.54875    | 0.90116    | 1.1299     |  22.9 | 35.55
Output  | 0.00026358 | 0.000287   | 0.00034862 |   0.0 |  0.01
Modify  | 0.063331   | 0.067138   | 0.070935   |   1.4 |  2.65
Other   |            | 0.03506    |            |       |  1.38

Nlocal:         120.25 ave         127 max         114 min
Histogram: 2 0 0 0 0 0 0 0 0 2
Nghost:        4144.25 ave        4168 max        4117 min
Histogram: 1 0 1 0 0 0 0 0 1 1
Neighs:              0 ave           0 max           0 min
Histogram: 4 0 0 0 0 0 0 0 0 0

Total # of neighbors = 0
Ave neighs/atom = 0
Ave special neighs/atom = 15.567568
Neighbor list builds = 32
Dangerous builds = 0
fix             myat1 all ave/time 100 10 1000 v_zave v_zdes file simulation_data/abpot/${cpt}.dat
fix             myat1 all ave/time 100 10 1000 v_zave v_zdes file simulation_data/abpot/33.dat
run             50000
Generated 0 of 1 mixed pair_coeff terms from geometric mixing rule
Per MPI rank memory allocation (min/avg/max) = 14.61 | 14.61 | 14.61 Mbytes
   Step          Temp          E_pair         E_mol          TotEng         Press     
   1950000   312.86754      372.84904      18522.778      19343.275     -529.46956    
   1951000   304.06226      388.70302      18525.714      19349.466      66.14427     
   1952000   316.56487      378.91006      18531.693      19363.54      -357.42646    
   1953000   308.82113      369.20512      18560.429      19371.492     -717.9576     
   1954000   321.65058      378.55678      18518.717      19357.487     -224.74001    
   1955000   297.88311      388.78826      18518.673      19333.669     -73.501055    
   1956000   293.62981      377.56849      18515.419      19313.11      -380.83365    
   1957000   294.55306      372.45966      18514.68       19308.583     -559.51869    
   1958000   299.01363      374.98451      18505.903      19308.713     -484.63911    
   1959000   289.64466      391.10504      18500.493      19306.019      168.00606    
   1960000   299.36701      375.62166      18513.723      19317.676     -528.80784    
   1961000   300.20861      366.70383      18535.701      19331.94      -757.11256    
   1962000   295.98591      380.43337      18536.424      19340.351     -419.91393    
   1963000   301.00778      388.08853      18532.378      19351.145     -17.642725    
   1964000   314.11867      374.36551      18538.924      19362.727     -655.11697    
   1965000   295.78837      368.67903      18581.392      19373.282     -746.32773    
   1966000   321.37087      379.03689      18526.217      19365.068     -341.5159     
   1967000   299.3206       383.45609      18540.352      19352.072     -260.42444    
   1968000   301.21374      373.44966      18528.079      19332.501     -475.20154    
   1969000   287.88351      368.28203      18538.868      19319.05      -648.7907     
   1970000   298.55858      382.55163      18500.845      19310.571     -299.65958    
   1971000   288.67249      383.4002       18506.716      19303.146     -82.120436    
   1972000   299.94361      375.69848      18510.975      19315.83      -565.95003    
   1973000   297.97452      374.31164      18526.038      19326.688     -507.11102    
   1974000   301.57145      383.63909      18517.537      19332.661     -203.3532     
   1975000   320.63967      384.0396       18507.202      19350.009     -136.64662    
   1976000   324.58742      375.00755      18525.389      19364.813     -433.94135    
   1977000   314.3214       371.7912       18535.073      19356.591     -654.10397    
   1978000   316.99889      384.6368       18506.591      19344.786     -133.80554    
   1979000   313.75777      380.06462      18494.702      19323.688     -315.87034    
   1980000   299.61179      374.08102      18497.022      19299.785     -550.75906    
   1981000   286.7001       375.73723      18514.312      19300.256     -449.92282    
   1982000   286.96487      380.80243      18511.879      19303.268     -301.07744    
   1983000   281.95787      377.74826      18526.77       19307.941     -350.91569    
   1984000   290.76541      373.81581      18527.285      19317.125     -625.32413    
   1985000   304.18224      377.641        18520.684      19333.545     -294.29333    
   1986000   321.94376      381.43381      18504.945      19347.012     -325.36555    
   1987000   309.47527      377.24757      18528.916      19348.958     -424.66241    
   1988000   319.07933      379.18738      18520.942      19356.664     -231.64637    
   1989000   300.98626      381.12654      18535.567      19347.341     -330.53746    
   1990000   296.99936      376.9589       18520.856      19322.758     -481.89996    
   1991000   284.46825      380.57632      18505.668      19293.258     -323.80203    
   1992000   300.491        377.6343       18494.329      19301.903     -392.98772    
   1993000   291.27031      375.54927      18512.021      19304.316     -469.58633    
   1994000   286.92932      379.86164      18512.789      19303.185     -444.53229    
   1995000   305.24397      378.24516      18502.471      19317.456     -401.90563    
   1996000   291.36299      377.86618      18526.501      19321.246     -422.83448    
   1997000   300.00167      380.12288      18519.979      19329.341     -447.97641    
   1998000   302.21981      380.80864      18521.015      19334.237     -421.3049     
   1999000   303.21505      385.01937      18523.883      19342.739     -245.08443    
   2000000   294.46793      376.10291      18544.167      19341.591     -577.41415    
Loop time of 13.3706 on 4 procs for 50000 steps with 481 atoms

Performance: 16.155 ns/day, 1.486 hours/ns, 3739.559 timesteps/s, 1.799 Matom-step/s
98.3% CPU use with 4 MPI tasks x no OpenMP threads

MPI task timing breakdown:
Section |  min time  |  avg time  |  max time  |%varavg| %total
---------------------------------------------------------------
Pair    | 1.7571     | 3.2279     | 4.558      |  55.6 | 24.14
Bond    | 4.0314     | 4.4944     | 5.0018     |  18.0 | 33.61
Neigh   | 0.14776    | 0.14785    | 0.14793    |   0.0 |  1.11
Comm    | 3.0352     | 4.8756     | 6.1392     |  52.1 | 36.47
Output  | 0.0016996  | 0.0024879  | 0.0027732  |   0.9 |  0.02
Modify  | 0.42044    | 0.42559    | 0.43193    |   0.7 |  3.18
Other   |            | 0.1967     |            |       |  1.47

Nlocal:         120.25 ave         127 max         113 min
Histogram: 1 1 0 0 0 0 0 0 0 2
Nghost:         4167.5 ave        4190 max        4145 min
Histogram: 2 0 0 0 0 0 0 0 0 2
Neighs:              0 ave           0 max           0 min
Histogram: 4 0 0 0 0 0 0 0 0 0

Total # of neighbors = 0
Ave neighs/atom = 0
Ave special neighs/atom = 15.567568
Neighbor list builds = 157
Dangerous builds = 0
unfix           myat1
next            cpt
jump            SELF loop
variable        zdes equal  -15+0.30*(${cpt}-1)
variable        zdes equal  -15+0.30*(34-1)
fix             mytth2 H2 spring tether ${k1} 5 5 ${zdes} 0
fix             mytth2 H2 spring tether 0.5 5 5 ${zdes} 0
fix             mytth2 H2 spring tether 0.5 5 5 -5.1 0
run             10000
Generated 0 of 1 mixed pair_coeff terms from geometric mixing rule
Per MPI rank memory allocation (min/avg/max) = 14.61 | 14.61 | 14.61 Mbytes
   Step          Temp          E_pair         E_mol          TotEng         Press     
   2000000   294.46793      376.10291      18544.167      19341.591     -577.41415    
   2001000   306.00296      379.42139      18517.744      19334.991     -478.40104    
   2002000   305.85529      382.24054      18513.971      19333.826     -311.6619     
   2003000   304.89235      377.75788      18514.181      19328.175     -524.39975    
   2004000   296.62291      377.65228      18529.068      19331.125     -354.20478    
   2005000   298.62636      380.11154      18525.559      19332.942     -450.40608    
   2006000   296.96557      381.50895      18524.837      19331.241     -322.19813    
   2007000   301.85019      381.34961      18512.944      19326.178     -412.37371    
   2008000   298.8123       377.88496      18519.635      19325.057     -345.6204     
   2009000   314.78255      378.7255       18500.881      19329.994     -301.94032    
   2010000   300.77691      380.91727      18511.585      19322.85      -315.92338    
Loop time of 2.59641 on 4 procs for 10000 steps with 481 atoms

Performance: 16.638 ns/day, 1.442 hours/ns, 3851.468 timesteps/s, 1.853 Matom-step/s
99.0% CPU use with 4 MPI tasks x no OpenMP threads

MPI task timing breakdown:
Section |  min time  |  avg time  |  max time  |%varavg| %total
---------------------------------------------------------------
Pair    | 0.34605    | 0.63672    | 0.89822    |  24.7 | 24.52
Bond    | 0.79471    | 0.88847    | 0.99181    |   8.2 | 34.22
Neigh   | 0.027997   | 0.028018   | 0.028038   |   0.0 |  1.08
Comm    | 0.57004    | 0.93348    | 1.1798     |  23.5 | 35.95
Output  | 0.00028154 | 0.000308   | 0.00037708 |   0.0 |  0.01
Modify  | 0.070753   | 0.072379   | 0.073977   |   0.5 |  2.79
Other   |            | 0.03703    |            |       |  1.43

Nlocal:         120.25 ave         126 max         115 min
Histogram: 2 0 0 0 0 0 0 0 0 2
Nghost:         4173.5 ave        4200 max        4148 min
Histogram: 1 0 1 0 0 0 0 1 0 1
Neighs:              0 ave           0 max           0 min
Histogram: 4 0 0 0 0 0 0 0 0 0

Total # of neighbors = 0
Ave neighs/atom = 0
Ave special neighs/atom = 15.567568
Neighbor list builds = 31
Dangerous builds = 0
fix             myat1 all ave/time 100 10 1000 v_zave v_zdes file simulation_data/abpot/${cpt}.dat
fix             myat1 all ave/time 100 10 1000 v_zave v_zdes file simulation_data/abpot/34.dat
run             50000
Generated 0 of 1 mixed pair_coeff terms from geometric mixing rule
Per MPI rank memory allocation (min/avg/max) = 14.61 | 14.61 | 14.61 Mbytes
   Step          Temp          E_pair         E_mol          TotEng         Press     
   2010000   300.77691      380.91727      18511.585      19322.85      -315.92338    
   2011000   305.0142       378.88565      18512.458      19327.754     -308.41705    
   2012000   300.7729       378.82353      18523.639      19332.805     -327.38959    
   2013000   316.01263      380.64091      18508.497      19341.285     -316.7976     
   2014000   304.78758      383.86045      18526.766      19346.713     -203.69912    
   2015000   302.18889      381.48476      18538.825      19352.678     -339.59602    
   2016000   320.35886      377.04489      18511.316      19346.727     -455.16541    
   2017000   307.92126      377.58607      18523.581      19341.738     -370.00714    
   2018000   311.68777      382.11916      18506.979      19335.058     -344.57137    
   2019000   295.19059      379.97337      18512.93       19315.259     -273.87137    
   2020000   298.71479      376.83848      18501.231      19305.467     -362.75243    
   2021000   286.77302      377.1624       18509.426      19296.9       -490.4174     
   2022000   301.86039      382.7305       18486.01       19300.639     -251.65443    
   2023000   273.88196      379.15396      18542.392      19313.413     -415.93536    
   2024000   301.36838      374.76853      18529.383      19335.346     -492.26578    
   2025000   306.13405      380.46751      18527.86       19346.341     -452.62547    
   2026000   301.2051       381.24439      18533.643      19345.849     -245.55684    
   2027000   318.92667      380.48555      18509.504      19346.306     -490.51447    
   2028000   302.03741      375.92229      18529.275      19337.349     -457.1812     
   2029000   299.51582      378.76445      18516.228      19323.536     -491.34735    
   2030000   296.64483      387.12629      18516.597      19328.16      -116.05481    
   2031000   297.56697      378.55281      18520.678      19324.987     -323.24413    
   2032000   286.77415      374.8238       18532.207      19317.344     -562.57768    
   2033000   291.48894      384.85526      18497.692      19299.606     -239.47864    
   2034000   291.72214      383.16129      18493.471      19294.025     -275.46706    
   2035000   291.02234      375.42672      18499.283      19291.102     -475.55771    
   2036000   286.43253      377.05666      18509.16       19296.041     -440.53854    
   2037000   310.19443      375.78909      18494.805      19314.417     -388.97463    
   2038000   292.59279      386.82096      18521.479      19326.939     -58.032911    
   2039000   326.28867      370.8791       18507.831      19345.56      -640.31709    
   2040000   314.49875      373.17889      18522.971      19346.131     -446.07529    
   2041000   313.07964      386.59827      18508.489      19343.038     -6.5184845    
   2042000   308.04757      377.82433      18516.342      19334.918     -471.85876    
   2043000   303.44508      375.50686      18520.24       19329.913     -445.15084    
   2044000   292.83804      378.24194      18515.445      19312.677     -483.24435    
   2045000   289.89639      382.38707      18493.577      19290.745     -315.217      
   2046000   301.87242      381.62853      18467.082      19280.626     -176.64262    
   2047000   284.65961      375.74362      18498.097      19281.128     -492.62308    
   2048000   286.65342      376.4207       18504.703      19291.265     -393.39517    
   2049000   293.34222      382.89062      18498.525      19301.127     -236.74411    
   2050000   295.43985      381.42888      18508.257      19312.398     -168.69327    
   2051000   286.64279      375.59901      18531.071      19316.795     -454.11354    
   2052000   318.02235      375.1753       18500.386      19330.585     -414.83102    
   2053000   303.69792      380.54481      18519.418      19334.491     -175.09818    
   2054000   303.10194      374.82484      18523.44       19331.939     -551.55295    
   2055000   310.93454      374.9638       18529.172      19349.018     -450.7435     
   2056000   302.12163      378.32606      18544.155      19354.753     -405.10958    
   2057000   306.55346      379.09514      18536.672      19354.38      -163.48009    
   2058000   308.06231      370.82791      18532.925      19344.525     -829.99541    
   2059000   309.05183      380.90024      18502.821      19325.909     -255.8078     
   2060000   295.60271      373.66915      18513.725      19310.339     -557.79964    
Loop time of 12.9052 on 4 procs for 50000 steps with 481 atoms

Performance: 16.737 ns/day, 1.434 hours/ns, 3874.417 timesteps/s, 1.864 Matom-step/s
99.1% CPU use with 4 MPI tasks x no OpenMP threads

MPI task timing breakdown:
Section |  min time  |  avg time  |  max time  |%varavg| %total
---------------------------------------------------------------
Pair    | 1.729      | 3.1791     | 4.474      |  54.9 | 24.63
Bond    | 3.979      | 4.4332     | 4.9252     |  17.8 | 34.35
Neigh   | 0.1337     | 0.13376    | 0.13381    |   0.0 |  1.04
Comm    | 2.8274     | 4.6117     | 5.8444     |  51.9 | 35.74
Output  | 0.0017212  | 0.0039115  | 0.0046685  |   2.0 |  0.03
Modify  | 0.35502    | 0.3594     | 0.36218    |   0.5 |  2.78
Other   |            | 0.1841     |            |       |  1.43

Nlocal:         120.25 ave         129 max         111 min
Histogram: 1 0 0 1 0 0 1 0 0 1
Nghost:        4181.75 ave        4206 max        4160 min
Histogram: 2 0 0 0 0 0 0 0 1 1
Neighs:              0 ave           0 max           0 min
Histogram: 4 0 0 0 0 0 0 0 0 0

Total # of neighbors = 0
Ave neighs/atom = 0
Ave special neighs/atom = 15.567568
Neighbor list builds = 147
Dangerous builds = 0
unfix           myat1
next            cpt
jump            SELF loop
variable        zdes equal  -15+0.30*(${cpt}-1)
variable        zdes equal  -15+0.30*(35-1)
fix             mytth2 H2 spring tether ${k1} 5 5 ${zdes} 0
fix             mytth2 H2 spring tether 0.5 5 5 ${zdes} 0
fix             mytth2 H2 spring tether 0.5 5 5 -4.8 0
run             10000
Generated 0 of 1 mixed pair_coeff terms from geometric mixing rule
Per MPI rank memory allocation (min/avg/max) = 14.61 | 14.61 | 14.61 Mbytes
   Step          Temp          E_pair         E_mol          TotEng         Press     
   2060000   295.60271      373.66915      18513.725      19310.339     -557.79964    
   2061000   274.94317      378.40852      18535.988      19307.782     -316.02796    
   2062000   273.94955      373.05342      18544.274      19309.291     -617.58026    
   2063000   297.10749      372.66736      18519.387      19317.152     -512.70674    
   2064000   298.55145      386.31749      18508.091      19321.573     -113.51512    
   2065000   306.2888       374.70072      18534.242      19347.177     -392.59714    
   2066000   340.0572       373.15493      18500.182      19359.887     -653.75569    
   2067000   298.25674      388.45794      18539.106      19354.306      26.905383    
   2068000   322.91878      376.88364      18520.2        19359.112     -540.14126    
   2069000   305.93176      381.2986       18530.837      19349.859     -197.98859    
   2070000   312.75305      373.87764      18516.788      19338.149     -468.12199    
Loop time of 2.51874 on 4 procs for 10000 steps with 481 atoms

Performance: 17.151 ns/day, 1.399 hours/ns, 3970.245 timesteps/s, 1.910 Matom-step/s
99.6% CPU use with 4 MPI tasks x no OpenMP threads

MPI task timing breakdown:
Section |  min time  |  avg time  |  max time  |%varavg| %total
---------------------------------------------------------------
Pair    | 0.34014    | 0.62435    | 0.87315    |  24.1 | 24.79
Bond    | 0.79119    | 0.87783    | 0.97213    |   7.7 | 34.85
Neigh   | 0.025985   | 0.026005   | 0.026024   |   0.0 |  1.03
Comm    | 0.54491    | 0.88857    | 1.132      |  22.9 | 35.28
Output  | 0.00025775 | 0.0002843  | 0.00035621 |   0.0 |  0.01
Modify  | 0.065935   | 0.066829   | 0.067791   |   0.3 |  2.65
Other   |            | 0.03487    |            |       |  1.38

Nlocal:         120.25 ave         127 max         113 min
Histogram: 1 0 1 0 0 0 0 0 1 1
Nghost:         4170.5 ave        4191 max        4149 min
Histogram: 2 0 0 0 0 0 0 0 0 2
Neighs:              0 ave           0 max           0 min
Histogram: 4 0 0 0 0 0 0 0 0 0

Total # of neighbors = 0
Ave neighs/atom = 0
Ave special neighs/atom = 15.567568
Neighbor list builds = 29
Dangerous builds = 0
fix             myat1 all ave/time 100 10 1000 v_zave v_zdes file simulation_data/abpot/${cpt}.dat
fix             myat1 all ave/time 100 10 1000 v_zave v_zdes file simulation_data/abpot/35.dat
run             50000
Generated 0 of 1 mixed pair_coeff terms from geometric mixing rule
Per MPI rank memory allocation (min/avg/max) = 14.61 | 14.61 | 14.61 Mbytes
   Step          Temp          E_pair         E_mol          TotEng         Press     
   2070000   312.75305      373.87764      18516.788      19338.149     -468.12199    
   2071000   304.81177      375.57115      18519.425      19331.117     -317.09498    
   2072000   302.39004      384.13404      18505.151      19321.941     -105.30429    
   2073000   305.19005      371.75245      18512.976      19321.391     -493.44005    
   2074000   303.83475      374.01772      18517.356      19326.097     -421.30373    
   2075000   304.43124      384.67318      18496.599      19316.849     -174.05741    
   2076000   293.16435      375.54913      18526.951      19321.956     -578.42798    
   2077000   286.08366      377.43595      18536.377      19323.138     -522.30843    
   2078000   288.27893      378.27471      18543.509      19334.25      -421.96498    
   2079000   291.9913       380.06411      18545.707      19343.549     -535.60164    
   2080000   302.22578      380.87991      18534.884      19348.185     -463.52966    
   2081000   319.28671      375.12622      18531.736      19363.694     -649.23858    
   2082000   305.33201      378.81336      18546.294      19361.973     -461.85102    
   2083000   308.30063      380.82221      18524.079      19346.014     -440.39732    
   2084000   299.09912      374.04987      18533.521      19335.518     -501.00691    
   2085000   277.11534      378.89064      18537.921      19313.305     -280.24574    
   2086000   292.0692       375.92238      18515.192      19309.004     -434.25288    
   2087000   283.58605      380.47437      18529.861      19316.087     -383.09059    
   2088000   303.82406      375.48367      18510.312      19320.503     -502.63749    
   2089000   292.71947      378.00449      18524.049      19320.873     -319.46389    
   2090000   294.45436      381.8129       18525.256      19328.371     -210.13371    
   2091000   318.40003      377.33192      18513.856      19346.751     -431.27485    
   2092000   300.92383      379.27387      18538.341      19348.173     -267.44025    
   2093000   300.70047      376.81427      18542.796      19349.849     -536.9955     
   2094000   308.15037      383.70084      18521.171      19345.77      -331.61993    
   2095000   300.09485      380.01785      18529.728      19339.119     -443.96759    
   2096000   304.14518      373.7582       18528.396      19337.321     -447.29748    
   2097000   291.25031      380.85183      18527.814      19325.383     -142.78671    
   2098000   282.12226      381.29451      18532.426      19317.378     -436.76455    
   2099000   290.3162       383.10914      18519.454      19317.944     -269.48291    
   2100000   312.99325      377.49034      18504.797      19330.115     -416.56251    
   2101000   295.0631       382.62918      18523.941      19328.743     -226.33319    
   2102000   305.03138      382.1647       18515.734      19334.334     -266.55915    
   2103000   301.96543      380.79699      18541.64       19354.485     -292.0962     
   2104000   301.38674      378.4737       18560.36       19370.055     -444.37348    
   2105000   317.59359      378.76446      18544.546      19377.72      -363.216      
   2106000   319.86746      384.67438      18523.176      19365.513     -199.1152     
   2107000   313.18931      378.81595      18520.558      19347.481     -341.41045    
   2108000   285.01048      370.99653      18546.668      19325.454     -764.71274    
   2109000   294.36445      383.21887      18515.205      19319.598     -279.58151    
   2110000   293.50605      375.48575      18517.075      19312.506     -697.06456    
   2111000   303.54236      378.96219      18511.687      19324.954     -221.45772    
   2112000   299.09924      377.63492      18526.838      19332.421     -508.20756    
   2113000   300.23978      376.88135      18529.714      19336.175     -309.21669    
   2114000   305.97766      382.8516       18524.714      19345.355     -377.3965     
   2115000   297.52585      377.04424      18553.663      19356.404     -450.71855    
   2116000   310.61321      377.8572       18536.111      19358.39      -493.17525    
   2117000   302.17744      384.74363      18540.934      19358.029      38.412455    
   2118000   301.6262       379.68606      18556.508      19367.757     -419.40188    
   2119000   299.08254      383.07204      18541.309      19352.305     -291.83293    
   2120000   297.64847      379.73839      18520.514      19326.125     -345.65797    
Loop time of 12.7102 on 4 procs for 50000 steps with 481 atoms

Performance: 16.994 ns/day, 1.412 hours/ns, 3933.850 timesteps/s, 1.892 Matom-step/s
99.6% CPU use with 4 MPI tasks x no OpenMP threads

MPI task timing breakdown:
Section |  min time  |  avg time  |  max time  |%varavg| %total
---------------------------------------------------------------
Pair    | 1.7091     | 3.1381     | 4.412      |  54.4 | 24.69
Bond    | 3.9302     | 4.3974     | 4.8925     |  18.0 | 34.60
Neigh   | 0.12785    | 0.12796    | 0.12805    |   0.0 |  1.01
Comm    | 2.7623     | 4.517      | 5.7162     |  51.6 | 35.54
Output  | 0.0014854  | 0.0020772  | 0.002306   |   0.8 |  0.02
Modify  | 0.33596    | 0.35144    | 0.36586    |   2.2 |  2.77
Other   |            | 0.1763     |            |       |  1.39

Nlocal:         120.25 ave         127 max         113 min
Histogram: 1 0 1 0 0 0 0 1 0 1
Nghost:        4163.75 ave        4186 max        4144 min
Histogram: 2 0 0 0 0 0 0 0 1 1
Neighs:              0 ave           0 max           0 min
Histogram: 4 0 0 0 0 0 0 0 0 0

Total # of neighbors = 0
Ave neighs/atom = 0
Ave special neighs/atom = 15.567568
Neighbor list builds = 142
Dangerous builds = 0
unfix           myat1
next            cpt
jump            SELF loop
variable        zdes equal  -15+0.30*(${cpt}-1)
variable        zdes equal  -15+0.30*(36-1)
fix             mytth2 H2 spring tether ${k1} 5 5 ${zdes} 0
fix             mytth2 H2 spring tether 0.5 5 5 ${zdes} 0
fix             mytth2 H2 spring tether 0.5 5 5 -4.5 0
run             10000
Generated 0 of 1 mixed pair_coeff terms from geometric mixing rule
Per MPI rank memory allocation (min/avg/max) = 14.61 | 14.61 | 14.61 Mbytes
   Step          Temp          E_pair         E_mol          TotEng         Press     
   2120000   297.64847      379.73839      18520.514      19326.125     -345.65797    
   2121000   288.32067      385.42684      18519.527      19317.48      -259.57448    
   2122000   288.60357      375.79764      18520.618      19309.346     -547.4021     
   2123000   302.52144      377.36705      18501.973      19312.184     -465.58866    
   2124000   304.12568      384.06629      18500.094      19319.3       -203.49158    
   2125000   297.9171       377.08631      18532.056      19335.399     -509.61542    
   2126000   296.65114      379.20573      18545.102      19348.753     -483.18556    
   2127000   315.09621      375.43536      18536.892      19363.163     -460.92765    
   2128000   307.29425      378.72743      18544.433      19362.833     -480.38606    
   2129000   308.48371      386.31241      18529.83       19357.517     -65.77829     
   2130000   318.42495      375.03558      18524.02       19354.654     -581.87376    
Loop time of 2.60434 on 4 procs for 10000 steps with 481 atoms

Performance: 16.588 ns/day, 1.447 hours/ns, 3839.746 timesteps/s, 1.847 Matom-step/s
98.8% CPU use with 4 MPI tasks x no OpenMP threads

MPI task timing breakdown:
Section |  min time  |  avg time  |  max time  |%varavg| %total
---------------------------------------------------------------
Pair    | 0.34755    | 0.63865    | 0.89851    |  24.6 | 24.52
Bond    | 0.79625    | 0.89049    | 0.99002    |   8.0 | 34.19
Neigh   | 0.024065   | 0.024101   | 0.024139   |   0.0 |  0.93
Comm    | 0.5804     | 0.93869    | 1.1863     |  23.2 | 36.04
Output  | 0.00027667 | 0.00030739 | 0.00038687 |   0.0 |  0.01
Modify  | 0.073299   | 0.074676   | 0.076047   |   0.4 |  2.87
Other   |            | 0.03742    |            |       |  1.44

Nlocal:         120.25 ave         129 max         111 min
Histogram: 1 1 0 0 0 0 0 0 0 2
Nghost:         4164.5 ave        4192 max        4140 min
Histogram: 2 0 0 0 0 0 0 0 1 1
Neighs:              0 ave           0 max           0 min
Histogram: 4 0 0 0 0 0 0 0 0 0

Total # of neighbors = 0
Ave neighs/atom = 0
Ave special neighs/atom = 15.567568
Neighbor list builds = 26
Dangerous builds = 0
fix             myat1 all ave/time 100 10 1000 v_zave v_zdes file simulation_data/abpot/${cpt}.dat
fix             myat1 all ave/time 100 10 1000 v_zave v_zdes file simulation_data/abpot/36.dat
run             50000
Generated 0 of 1 mixed pair_coeff terms from geometric mixing rule
Per MPI rank memory allocation (min/avg/max) = 14.61 | 14.61 | 14.61 Mbytes
   Step          Temp          E_pair         E_mol          TotEng         Press     
   2130000   318.42495      375.03558      18524.02       19354.654     -581.87376    
   2131000   301.20645      371.05529      18548.201      19350.219     -656.06158    
   2132000   302.80319      381.25658      18520.109      19334.613     -231.72662    
   2133000   292.0113       383.01085      18527.714      19328.532     -279.74826    
   2134000   295.11227      375.32102      18523.652      19321.217     -450.61388    
   2135000   280.26291      374.39548      18539.609      19315.002     -623.95889    
   2136000   296.27668      379.30321      18505.26       19308.473     -400.63464    
   2137000   287.12471      385.38691      18519.5        19315.701     -195.58503    
   2138000   307.9733       377.65563      18510.705      19329.005     -426.05579    
   2139000   300.18768      371.07027      18541.927      19342.502     -696.64261    
   2140000   321.36769      384.18881      18515.75       19359.748     -89.374272    
   2141000   306.43922      383.20387      18543.431      19365.085     -244.71798    
   2142000   312.04314      372.01694      18539.463      19357.948     -549.87251    
   2143000   301.90314      376.08039      18544.401      19352.441     -511.0072     
   2144000   298.39818      379.62505      18526.362      19332.932     -345.17762    
   2145000   302.19146      378.06936      18504.818      19315.259     -419.91161    
   2146000   302.64045      375.04638      18505.481      19313.542     -402.10496    
   2147000   305.96725      374.29673      18504.193      19316.265     -511.29622    
   2148000   305.15293      381.06049      18500.641      19318.311     -279.9213     
   2149000   304.23733      380.14502      18508.277      19323.721     -316.60462    
   2150000   304.33969      380.36585      18521.701      19337.513     -268.00655    
   2151000   290.79198      376.30286      18549.614      19341.978     -519.01157    
   2152000   328.21625      386.37868      18491.677      19347.664     -140.37622    
   2153000   316.35027      379.13785      18527.067      19358.835     -213.54363    
   2154000   318.89435      373.84076      18544.141      19374.252     -726.85367    
   2155000   326.13521      385.15154      18534.226      19386.008     -168.92779    
   2156000   320.80772      384.87723      18532.231      19376.117     -152.62384    
   2157000   304.49394      374.69546      18548.502      19358.864     -549.44942    
   2158000   304.41436      376.49017      18520.331      19332.374     -505.20916    
   2159000   300.40711      379.11626      18508.469      19317.404     -416.15255    
   2160000   296.30523      386.08204      18511.25       19321.282     -221.63248    
   2161000   281.95703      376.29654      18538.751      19318.469     -584.62414    
   2162000   300.37764      376.17571      18512.864      19318.817     -578.81647    
   2163000   280.04768      383.57894      18531.352      19315.62      -333.18985    
   2164000   286.89255      383.70229      18532.34       19326.525     -317.0539     
   2165000   294.90178      373.40454      18551.775      19347.121     -639.22088    
   2166000   299.50015      375.78279      18560.051      19364.355     -572.05418    
   2167000   309.50304      386.78942      18539.621      19369.244     -100.78619    
   2168000   305.43211      378.23657      18547.935      19363.18      -530.07404    
   2169000   312.28989      373.6232       18532.769      19353.214     -478.26622    
   2170000   301.01103      378.1241       18517.108      19325.915     -290.58677    
   2171000   302.18442      383.032        18496.403      19311.797     -212.85485    
   2172000   310.95777      379.97558      18488.503      19313.393     -242.88678    
   2173000   315.09091      375.44586      18490.939      19317.213     -483.72021    
   2174000   290.93152      377.77411      18535.202      19329.237     -403.08153    
   2175000   301.87758      384.16567      18518.288      19334.377     -243.92937    
   2176000   305.79604      378.98515      18529.881      19346.396     -358.01553    
   2177000   304.2922       374.51358      18544.865      19354.756     -561.82144    
   2178000   321.56822      373.99303      18518.639      19352.729     -472.08231    
   2179000   312.27564      385.74776      18516.164      19348.712     -40.525273    
   2180000   308.9731       375.88402      18505.501      19323.46      -402.73428    
Loop time of 13.0929 on 4 procs for 50000 steps with 481 atoms

Performance: 16.497 ns/day, 1.455 hours/ns, 3818.850 timesteps/s, 1.837 Matom-step/s
98.5% CPU use with 4 MPI tasks x no OpenMP threads

MPI task timing breakdown:
Section |  min time  |  avg time  |  max time  |%varavg| %total
---------------------------------------------------------------
Pair    | 1.7364     | 3.1856     | 4.4811     |  54.8 | 24.33
Bond    | 3.9985     | 4.463      | 4.9517     |  17.9 | 34.09
Neigh   | 0.13384    | 0.13391    | 0.13397    |   0.0 |  1.02
Comm    | 2.9422     | 4.7314     | 5.9553     |  51.3 | 36.14
Output  | 0.0016054  | 0.0024407  | 0.002751   |   1.0 |  0.02
Modify  | 0.38254    | 0.38894    | 0.39688    |   0.9 |  2.97
Other   |            | 0.1876     |            |       |  1.43

Nlocal:         120.25 ave         126 max         114 min
Histogram: 1 0 1 0 0 0 0 0 1 1
Nghost:         4167.5 ave        4191 max        4148 min
Histogram: 2 0 0 0 0 0 0 1 0 1
Neighs:              0 ave           0 max           0 min
Histogram: 4 0 0 0 0 0 0 0 0 0

Total # of neighbors = 0
Ave neighs/atom = 0
Ave special neighs/atom = 15.567568
Neighbor list builds = 146
Dangerous builds = 0
unfix           myat1
next            cpt
jump            SELF loop
variable        zdes equal  -15+0.30*(${cpt}-1)
variable        zdes equal  -15+0.30*(37-1)
fix             mytth2 H2 spring tether ${k1} 5 5 ${zdes} 0
fix             mytth2 H2 spring tether 0.5 5 5 ${zdes} 0
fix             mytth2 H2 spring tether 0.5 5 5 -4.2 0
run             10000
Generated 0 of 1 mixed pair_coeff terms from geometric mixing rule
Per MPI rank memory allocation (min/avg/max) = 14.61 | 14.61 | 14.61 Mbytes
   Step          Temp          E_pair         E_mol          TotEng         Press     
   2180000   308.9731       375.88402      18505.501      19323.46      -402.73428    
   2181000   293.51444      369.35474      18520.307      19309.619     -631.02441    
   2182000   290.40881      379.61609      18500.37       19295.5       -367.38274    
   2183000   289.22987      384.25882      18497.894      19295.98      -114.18645    
   2184000   278.74665      376.64837      18525.738      19301.214     -451.20353    
   2185000   301.98656      371.59718      18516.764      19320.441     -562.51702    
   2186000   310.02399      381.80091      18504.811      19330.191     -285.9427     
   2187000   295.07175      387.70695      18529.316      19339.208     -108.0937     
   2188000   306.61615      379.44189      18529.902      19348.046     -348.26088    
   2189000   307.22162      368.69345      18535.311      19343.573     -859.11893    
   2190000   300.08586      386.69299      18521.277      19337.329     -151.28817    
Loop time of 3.25655 on 4 procs for 10000 steps with 481 atoms

Performance: 13.266 ns/day, 1.809 hours/ns, 3070.738 timesteps/s, 1.477 Matom-step/s
92.1% CPU use with 4 MPI tasks x no OpenMP threads

MPI task timing breakdown:
Section |  min time  |  avg time  |  max time  |%varavg| %total
---------------------------------------------------------------
Pair    | 0.35149    | 0.68223    | 1.0037     |  28.1 | 20.95
Bond    | 0.80078    | 0.92444    | 1.0381     |   9.6 | 28.39
Neigh   | 0.03091    | 0.031151   | 0.031396   |   0.1 |  0.96
Comm    | 0.96473    | 1.4071     | 1.6986     |  23.0 | 43.21
Output  | 0.00030092 | 0.00033338 | 0.00041692 |   0.0 |  0.01
Modify  | 0.15051    | 0.16566    | 0.18053    |   3.6 |  5.09
Other   |            | 0.04565    |            |       |  1.40

Nlocal:         120.25 ave         129 max         111 min
Histogram: 1 0 1 0 0 0 0 0 1 1
Nghost:         4173.5 ave        4198 max        4151 min
Histogram: 2 0 0 0 0 0 0 0 1 1
Neighs:              0 ave           0 max           0 min
Histogram: 4 0 0 0 0 0 0 0 0 0

Total # of neighbors = 0
Ave neighs/atom = 0
Ave special neighs/atom = 15.567568
Neighbor list builds = 30
Dangerous builds = 0
fix             myat1 all ave/time 100 10 1000 v_zave v_zdes file simulation_data/abpot/${cpt}.dat
fix             myat1 all ave/time 100 10 1000 v_zave v_zdes file simulation_data/abpot/37.dat
run             50000
Generated 0 of 1 mixed pair_coeff terms from geometric mixing rule
Per MPI rank memory allocation (min/avg/max) = 14.61 | 14.61 | 14.61 Mbytes
   Step          Temp          E_pair         E_mol          TotEng         Press     
   2190000   300.08586      386.69299      18521.277      19337.329     -151.28817    
   2191000   300.39215      383.1111       18520.489      19333.398     -219.34082    
   2192000   308.15831      373.09272      18520.069      19334.071     -528.39801    
   2193000   299.41258      372.9838       18522.254      19323.634     -386.22907    
   2194000   289.63259      386.22123      18515.886      19316.51      -93.127049    
   2195000   292.88035      382.679        18512.126      19313.855     -148.79697    
   2196000   281.4528       372.14931      18540.369      19315.218     -677.4052     
   2197000   287.6263       378.21707      18528.534      19318.284     -380.92917    
   2198000   298.7481       386.82104      18507.501      19321.768      44.874637    
   2199000   307.64706      378.87839      18517.099      19336.156     -270.09546    
   2200000   309.12451      368.12475      18536.739      19347.156     -605.10071    
   2201000   310.66074      380.10341      18524.267      19348.86      -345.75844    
   2202000   310.56563      382.7178       18517.073      19344.145     -155.41037    
   2203000   303.152        379.70137      18529.715      19343.163     -274.68831    
   2204000   319.35767      366.80964      18508.795      19332.538     -802.56482    
   2205000   295.93018      378.19497      18508.691      19310.3       -258.35318    
   2206000   302.19457      389.45896      18478.975      19300.811     -71.269646    
   2207000   281.73343      370.11592      18526.816      19300.033     -520.82275    
   2208000   280.97827      367.94698      18531.663      19301.631     -753.09811    
   2209000   305.739        384.42114      18492.329      19314.198     -35.995041    
   2210000   302.02369      383.472        18526.089      19341.693     -297.70085    
   2211000   303.35965      372.68823      18555.99       19362.722     -419.60659    
   2212000   315.67935      369.61783      18539.456      19360.744     -687.00566    
   2213000   305.34781      382.85592      18529.717      19349.461     -120.47522    
   2214000   296.98395      385.54791      18528.847      19339.316     -181.54669    
   2215000   295.49172      367.9126       18530.85       19321.549     -743.16691    
   2216000   310.17652      369.3694       18504.663      19317.83      -460.08443    
   2217000   290.2796       386.80736      18501.722      19303.858     -11.846104    
   2218000   286.24615      381.60759      18517.094      19308.259     -146.65704    
   2219000   296.93561      366.55519      18523.76       19315.167     -777.67006    
   2220000   299.61183      381.69548      18521.9        19332.277     -253.56161    
   2221000   308.73848      385.53093      18528.223      19355.494     -129.71137    
   2222000   309.99457      378.32627      18548.311      19370.174     -473.97426    
   2223000   314.74108      374.26338      18547.001      19371.593     -503.84057    
   2224000   336.88825      377.52151      18502.376      19361.913     -317.20147    
   2225000   307.55818      386.50456      18515.311      19341.866      3.4050587    
   2226000   303.25945      378.41748      18518.101      19330.418     -403.26238    
   2227000   299.98887      370.62903      18528.601      19328.451     -639.90762    
   2228000   312.74143      377.82951      18496.299      19321.595     -297.47828    
   2229000   281.9101       387.61211      18522.562      19313.528     -17.368709    
   2230000   306.72331      372.1268       18508.878      19319.861     -487.85207    
   2231000   305.70131      371.35029      18523.506      19332.25      -596.30377    
   2232000   304.81969      382.29976      18530.362      19348.794     -209.21799    
   2233000   321.23424      383.50777      18528.393      19371.519     -172.82686    
   2234000   318.18026      375.17051      18550.093      19380.512     -462.6138     
   2235000   321.10749      370.09696      18552.623      19382.157     -681.88764    
   2236000   318.43822      384.34912      18520.685      19360.652     -221.74698    
   2237000   302.54663      383.26883      18526.71       19342.859     -228.40427    
   2238000   297.77139      371.75078      18541.874      19339.673     -655.42307    
   2239000   308.5161       370.78112      18525.814      19338.016     -531.56823    
   2240000   294.39857      381.56228      18520.142      19322.927     -240.30756    
Loop time of 13.3272 on 4 procs for 50000 steps with 481 atoms

Performance: 16.207 ns/day, 1.481 hours/ns, 3751.716 timesteps/s, 1.805 Matom-step/s
98.0% CPU use with 4 MPI tasks x no OpenMP threads

MPI task timing breakdown:
Section |  min time  |  avg time  |  max time  |%varavg| %total
---------------------------------------------------------------
Pair    | 1.7621     | 3.2327     | 4.5609     |  55.6 | 24.26
Bond    | 4.0288     | 4.4939     | 4.9947     |  18.2 | 33.72
Neigh   | 0.14139    | 0.15135    | 0.1613     |   2.6 |  1.14
Comm    | 2.9987     | 4.8353     | 6.0795     |  52.1 | 36.28
Output  | 0.0020611  | 0.0029978  | 0.0033986  |   1.0 |  0.02
Modify  | 0.41141    | 0.41681    | 0.42122    |   0.5 |  3.13
Other   |            | 0.1942     |            |       |  1.46

Nlocal:         120.25 ave         126 max         114 min
Histogram: 2 0 0 0 0 0 0 0 0 2
Nghost:         4176.5 ave        4197 max        4155 min
Histogram: 2 0 0 0 0 0 0 0 0 2
Neighs:              0 ave           0 max           0 min
Histogram: 4 0 0 0 0 0 0 0 0 0

Total # of neighbors = 0
Ave neighs/atom = 0
Ave special neighs/atom = 15.567568
Neighbor list builds = 152
Dangerous builds = 0
unfix           myat1
next            cpt
jump            SELF loop
variable        zdes equal  -15+0.30*(${cpt}-1)
variable        zdes equal  -15+0.30*(38-1)
fix             mytth2 H2 spring tether ${k1} 5 5 ${zdes} 0
fix             mytth2 H2 spring tether 0.5 5 5 ${zdes} 0
fix             mytth2 H2 spring tether 0.5 5 5 -3.9 0
run             10000
Generated 0 of 1 mixed pair_coeff terms from geometric mixing rule
Per MPI rank memory allocation (min/avg/max) = 14.61 | 14.61 | 14.61 Mbytes
   Step          Temp          E_pair         E_mol          TotEng         Press     
   2240000   294.39857      381.56228      18520.142      19322.927     -240.30756    
   2241000   296.01053      378.69887      18513.184      19315.411     -395.49754    
   2242000   309.11673      374.76841      18503.06       19320.109     -357.72662    
   2243000   302.6955       372.28256      18505.254      19310.63      -561.34981    
   2244000   295.7969       375.88594      18509.744      19308.853     -361.36703    
   2245000   295.95249      383.50356      18502.858      19309.807     -188.73788    
   2246000   296.23635      370.49495      18526.877      19321.224     -573.21607    
   2247000   306.3592       373.84532      18518.457      19330.638     -569.82371    
   2248000   318.24648      380.32556      18509.232      19344.901     -136.59287    
   2249000   311.65789      381.15689      18522.327      19349.401     -328.81675    
   2250000   322.5023       372.5563       18522.262      19356.251     -629.24074    
Loop time of 2.60224 on 4 procs for 10000 steps with 481 atoms

Performance: 16.601 ns/day, 1.446 hours/ns, 3842.838 timesteps/s, 1.848 Matom-step/s
99.0% CPU use with 4 MPI tasks x no OpenMP threads

MPI task timing breakdown:
Section |  min time  |  avg time  |  max time  |%varavg| %total
---------------------------------------------------------------
Pair    | 0.34503    | 0.63796    | 0.89836    |  24.7 | 24.52
Bond    | 0.79936    | 0.89061    | 0.99066    |   7.9 | 34.22
Neigh   | 0.027226   | 0.027246   | 0.027265   |   0.0 |  1.05
Comm    | 0.57575    | 0.93539    | 1.1877     |  23.4 | 35.95
Output  | 0.00028454 | 0.00031944 | 0.00040812 |   0.0 |  0.01
Modify  | 0.072934   | 0.073691   | 0.074588   |   0.2 |  2.83
Other   |            | 0.03702    |            |       |  1.42

Nlocal:         120.25 ave         128 max         112 min
Histogram: 1 1 0 0 0 0 0 0 0 2
Nghost:        4142.75 ave        4167 max        4120 min
Histogram: 2 0 0 0 0 0 0 0 1 1
Neighs:              0 ave           0 max           0 min
Histogram: 4 0 0 0 0 0 0 0 0 0

Total # of neighbors = 0
Ave neighs/atom = 0
Ave special neighs/atom = 15.567568
Neighbor list builds = 30
Dangerous builds = 0
fix             myat1 all ave/time 100 10 1000 v_zave v_zdes file simulation_data/abpot/${cpt}.dat
fix             myat1 all ave/time 100 10 1000 v_zave v_zdes file simulation_data/abpot/38.dat
run             50000
Generated 0 of 1 mixed pair_coeff terms from geometric mixing rule
Per MPI rank memory allocation (min/avg/max) = 14.61 | 14.61 | 14.61 Mbytes
   Step          Temp          E_pair         E_mol          TotEng         Press     
   2250000   322.5023       372.5563       18522.262      19356.251     -629.24074    
   2251000   302.12833      378.30312      18533.847      19344.432     -452.96748    
   2252000   309.26069      381.63029      18506.225      19330.342     -205.98112    
   2253000   298.10103      378.48318      18505.222      19310.224     -383.79972    
   2254000   293.11234      375.82155      18503.651      19298.854     -341.27538    
   2255000   284.15293      373.87334      18520.097      19300.534     -409.14946    
   2256000   272.11207      381.47506      18527.656      19298.466     -160.62388    
   2257000   289.00728      378.10613      18518.82       19310.434     -331.64616    
   2258000   293.93557      369.8449       18530.903      19321.308     -568.23903    
   2259000   299.80122      382.26956      18517.424      19328.646     -242.51044    
   2260000   297.27829      384.24556      18527.57       19337.158     -150.81045    
   2261000   297.94218      375.27644      18530.11       19331.679     -544.44062    
   2262000   290.80614      375.18759      18538.827      19330.096     -560.53331    
   2263000   288.25669      384.47302      18538.511      19335.418     -272.8051     
   2264000   291.06499      381.36979      18534.372      19332.194     -167.11947    
   2265000   317.57675      369.92797      18511.13       19335.444     -519.80483    
   2266000   302.15447      373.75606      18525.516      19331.591     -489.35357    
   2267000   309.33713      383.05067      18504.672      19330.319     -122.36251    
   2268000   299.47173      375.37954      18524.815      19328.675     -375.38907    
   2269000   310.56376      366.1745       18538.248      19348.773     -774.09391    
   2270000   310.60406      375.07399      18535.162      19354.645     -409.61491    
   2271000   290.74633      381.57055      18560.297      19357.864     -287.57857    
   2272000   319.63659      380.68151      18531.414      19369.428     -199.50743    
   2273000   316.84423      368.57131      18556.323      19378.231     -687.85944    
   2274000   316.1395       376.62535      18527.146      19356.101     -315.08277    
   2275000   303.90834      388.36401      18500.216      19323.409     -153.47955    
   2276000   300.04491      377.93999      18513.426      19320.667     -286.95124    
   2277000   294.86621      372.16357      18524.125      19318.179     -584.60704    
   2278000   289.81451      380.52202      18521.527      19316.712     -122.86707    
   2279000   288.83814      383.9495       18514.031      19311.247     -234.36982    
   2280000   293.36262      385.69715      18517.198      19322.635      55.012038    
   2281000   296.48848      371.16987      18541.587      19336.969     -620.12805    
   2282000   297.46113      377.5462       18549.392      19352.542     -328.61893    
   2283000   317.46473      391.18587      18524.076      19369.487      177.75101    
   2284000   318.30131      380.77552      18543.841      19380.038     -285.36099    
   2285000   321.59141      369.34511      18544.109      19373.583     -622.67247    
   2286000   312.40507      378.35833      18526.406      19351.75      -226.09596    
   2287000   298.02767      379.87875      18506.544      19312.838     -250.32514    
   2288000   298.3067       373.95465      18513.78       19314.549     -346.09275    
   2289000   292.57702      369.74483      18521.899      19310.26      -592.25751    
   2290000   298.23072      375.56282      18505.458      19307.726     -473.59558    
   2291000   290.4258       383.56827      18513.976      19313.083     -162.24011    
   2292000   303.86058      375.699        18514.946      19325.405     -473.03652    
   2293000   290.34095      372.23886      18545.475      19333.13      -650.81286    
   2294000   311.84539      384.32597      18518.143      19348.654      16.868299    
   2295000   300.75699      383.736        18545.464      19359.519     -235.19316    
   2296000   297.57292      369.47537      18560.073      19355.312     -835.68629    
   2297000   297.57192      377.13092      18536.194      19339.088     -357.79328    
   2298000   291.13974      381.88563      18510.951      19309.396     -179.82524    
   2299000   291.23653      374.12856      18509.683      19300.51      -466.02543    
   2300000   294.11255      372.44463      18505.502      19298.76      -473.48642    
Loop time of 12.9421 on 4 procs for 50000 steps with 481 atoms

Performance: 16.690 ns/day, 1.438 hours/ns, 3863.347 timesteps/s, 1.858 Matom-step/s
99.1% CPU use with 4 MPI tasks x no OpenMP threads

MPI task timing breakdown:
Section |  min time  |  avg time  |  max time  |%varavg| %total
---------------------------------------------------------------
Pair    | 1.7251     | 3.1646     | 4.4473     |  54.6 | 24.45
Bond    | 3.9764     | 4.4457     | 4.9609     |  18.4 | 34.35
Neigh   | 0.14308    | 0.14312    | 0.14317    |   0.0 |  1.11
Comm    | 2.8418     | 4.6352     | 5.857      |  52.0 | 35.81
Output  | 0.003131   | 0.0033956  | 0.0035283  |   0.3 |  0.03
Modify  | 0.35965    | 0.3653     | 0.36968    |   0.6 |  2.82
Other   |            | 0.1849     |            |       |  1.43

Nlocal:         120.25 ave         127 max         113 min
Histogram: 1 0 1 0 0 0 0 0 1 1
Nghost:        4169.75 ave        4190 max        4149 min
Histogram: 2 0 0 0 0 0 0 0 0 2
Neighs:              0 ave           0 max           0 min
Histogram: 4 0 0 0 0 0 0 0 0 0

Total # of neighbors = 0
Ave neighs/atom = 0
Ave special neighs/atom = 15.567568
Neighbor list builds = 156
Dangerous builds = 0
unfix           myat1
next            cpt
jump            SELF loop
variable        zdes equal  -15+0.30*(${cpt}-1)
variable        zdes equal  -15+0.30*(39-1)
fix             mytth2 H2 spring tether ${k1} 5 5 ${zdes} 0
fix             mytth2 H2 spring tether 0.5 5 5 ${zdes} 0
fix             mytth2 H2 spring tether 0.5 5 5 -3.6 0
run             10000
Generated 0 of 1 mixed pair_coeff terms from geometric mixing rule
Per MPI rank memory allocation (min/avg/max) = 14.61 | 14.61 | 14.61 Mbytes
   Step          Temp          E_pair         E_mol          TotEng         Press     
   2300000   294.11255      372.44463      18505.502      19298.76      -473.48642    
   2301000   290.98701      376.85349      18511.671      19304.865     -392.13697    
   2302000   280.02161      384.34464      18529.837      19314.833     -131.10187    
   2303000   300.48202      375.40895      18517.138      19322.473     -429.37964    
   2304000   312.25222      373.51294      18519.526      19339.806     -412.04678    
   2305000   319.99503      379.1577       18507.659      19344.662     -361.55483    
   2306000   309.2438       384.27219      18514.292      19341.026     -20.880509    
   2307000   310.29457      374.53224      18527.325      19345.823     -563.55293    
   2308000   321.88582      374.53134      18504.31       19339.392     -385.26314    
   2309000   291.66219      388.53248      18516.064      19321.904     -34.519122    
   2310000   278.42183      380.12918      18520.153      19298.645     -308.8119     
Loop time of 2.53075 on 4 procs for 10000 steps with 481 atoms

Performance: 17.070 ns/day, 1.406 hours/ns, 3951.403 timesteps/s, 1.901 Matom-step/s
99.6% CPU use with 4 MPI tasks x no OpenMP threads

MPI task timing breakdown:
Section |  min time  |  avg time  |  max time  |%varavg| %total
---------------------------------------------------------------
Pair    | 0.33988    | 0.62571    | 0.87959    |  24.3 | 24.72
Bond    | 0.7927     | 0.88029    | 0.97678    |   7.8 | 34.78
Neigh   | 0.028667   | 0.028697   | 0.028728   |   0.0 |  1.13
Comm    | 0.54478    | 0.89357    | 1.1358     |  23.1 | 35.31
Output  | 0.00024742 | 0.00027402 | 0.00034396 |   0.0 |  0.01
Modify  | 0.06554    | 0.067286   | 0.06898    |   0.6 |  2.66
Other   |            | 0.03493    |            |       |  1.38

Nlocal:         120.25 ave         128 max         112 min
Histogram: 1 0 0 1 0 0 1 0 0 1
Nghost:        4150.25 ave        4173 max        4122 min
Histogram: 1 0 0 1 0 0 0 0 1 1
Neighs:              0 ave           0 max           0 min
Histogram: 4 0 0 0 0 0 0 0 0 0

Total # of neighbors = 0
Ave neighs/atom = 0
Ave special neighs/atom = 15.567568
Neighbor list builds = 32
Dangerous builds = 0
fix             myat1 all ave/time 100 10 1000 v_zave v_zdes file simulation_data/abpot/${cpt}.dat
fix             myat1 all ave/time 100 10 1000 v_zave v_zdes file simulation_data/abpot/39.dat
run             50000
Generated 0 of 1 mixed pair_coeff terms from geometric mixing rule
Per MPI rank memory allocation (min/avg/max) = 14.61 | 14.61 | 14.61 Mbytes
   Step          Temp          E_pair         E_mol          TotEng         Press     
   2310000   278.42183      380.12918      18520.153      19298.645     -308.8119     
   2311000   284.97737      374.74449      18489.382      19271.869     -523.77737    
   2312000   268.0979       377.36757      18503.524      19264.483     -325.08414    
   2313000   269.79897      378.95098      18506.814      19271.791     -338.49131    
   2314000   282.52662      380.30802      18501.982      19286.526     -136.14131    
   2315000   287.01438      367.61445      18527.151      19305.423     -675.98646    
   2316000   313.98518      374.43679      18492.23       19315.913     -357.67457    
   2317000   307.16966      383.00866      18502.129      19324.632     -122.14088    
   2318000   308.34556      375.89904      18517.561      19334.637     -434.50736    
   2319000   327.13817      371.30187      18508.096      19347.464     -515.84178    
   2320000   303.11878      382.58139      18529.009      19345.29      -81.541226    
   2321000   301.73581      378.72676      18520.417      19330.864     -361.27445    
   2322000   305.05671      374.72689      18512.942      19324.141     -418.61829    
   2323000   298.88093      373.99148      18507.056      19308.683     -502.16547    
   2324000   287.30804      374.78484      18496.507      19282.369     -402.62774    
   2325000   291.85623      381.91525      18489.288      19288.788     -117.92435    
   2326000   304.28742      372.57765      18487.453      19295.402     -372.82719    
   2327000   288.60995      369.88872      18512.289      19295.118     -625.0348     
   2328000   293.65238      380.37412      18505.56       19306.088     -316.32683    
   2329000   300.10522      383.53482      18499.637      19312.559     -93.253652    
   2330000   299.80052      371.15077      18519.844      19319.946     -492.5167     
   2331000   297.4477       370.57929      18523.836      19320.001     -565.66354    
   2332000   312.62333      384.19464      18496.76       19328.253      16.802967    
   2333000   303.91845      382.51231      18512.696      19330.052     -196.59571    
   2334000   305.74939      368.91486      18522.178      19328.555     -676.09703    
   2335000   300.08912      377.0805       18518.427      19324.872     -446.91936    
   2336000   300.80315      385.25012      18508.159      19323.795     -35.592872    
   2337000   295.95719      381.95246      18512.519      19317.924     -273.3192     
   2338000   298.38826      370.46526      18522.864      19320.26      -641.01086    
   2339000   286.70825      378.58407      18530.037      19318.84      -402.31078    
   2340000   282.15432      384.453        18512.371      19300.527     -149.18341    
   2341000   302.92556      374.1912       18499.931      19307.544     -505.38734    
   2342000   300.0083       371.79273      18514.081      19315.122     -502.13953    
   2343000   301.12786      377.42147      18522.426      19330.698     -286.21517    
   2344000   310.83687      380.42323      18519.63       19344.795     -467.66408    
   2345000   311.25173      374.08188      18532.099      19351.516     -512.66224    
   2346000   318.21641      371.66623      18535.995      19362.962     -466.29475    
   2347000   300.71436      380.01544      18538.049      19348.323     -248.12602    
   2348000   304.50644      383.11487      18509.524      19328.323     -137.21953    
   2349000   295.64306      374.668        18513.576      19311.247     -556.76126    
   2350000   287.71284      376.75819      18510.821      19299.236     -372.85881    
   2351000   308.59893      380.36842      18480.72       19302.628     -94.725148    
   2352000   283.18412      379.18708      18514.538      19298.901     -339.45701    
   2353000   279.83962      368.89083      18536.877      19306.159     -714.24756    
   2354000   298.64723      376.11975      18518.957      19322.378     -342.19052    
   2355000   298.09458      382.91217      18522.753      19332.176     -269.35634    
   2356000   294.03674      379.73551      18538.27       19338.71      -401.58895    
   2357000   322.38786      374.28972      18518.894      19354.453     -397.60864    
   2358000   308.04018      379.86947      18529.328      19349.938     -200.74068    
   2359000   309.6794       381.14798      18505.92       19330.154     -199.93249    
   2360000   296.64708      376.5087       18505.297      19306.245     -386.84696    
Loop time of 12.7501 on 4 procs for 50000 steps with 481 atoms

Performance: 16.941 ns/day, 1.417 hours/ns, 3921.534 timesteps/s, 1.886 Matom-step/s
99.3% CPU use with 4 MPI tasks x no OpenMP threads

MPI task timing breakdown:
Section |  min time  |  avg time  |  max time  |%varavg| %total
---------------------------------------------------------------
Pair    | 1.7352     | 3.1309     | 4.395      |  53.7 | 24.56
Bond    | 3.9465     | 4.4122     | 4.9233     |  18.2 | 34.61
Neigh   | 0.13777    | 0.13779    | 0.13781    |   0.0 |  1.08
Comm    | 2.7655     | 4.5377     | 5.7218     |  51.8 | 35.59
Output  | 0.0014547  | 0.001973   | 0.002176   |   0.7 |  0.02
Modify  | 0.34822    | 0.35285    | 0.35629    |   0.5 |  2.77
Other   |            | 0.1768     |            |       |  1.39

Nlocal:         120.25 ave         129 max         111 min
Histogram: 1 0 0 1 0 0 1 0 0 1
Nghost:        4192.25 ave        4218 max        4171 min
Histogram: 2 0 0 0 0 0 0 1 0 1
Neighs:              0 ave           0 max           0 min
Histogram: 4 0 0 0 0 0 0 0 0 0

Total # of neighbors = 0
Ave neighs/atom = 0
Ave special neighs/atom = 15.567568
Neighbor list builds = 153
Dangerous builds = 0
unfix           myat1
next            cpt
jump            SELF loop
variable        zdes equal  -15+0.30*(${cpt}-1)
variable        zdes equal  -15+0.30*(40-1)
fix             mytth2 H2 spring tether ${k1} 5 5 ${zdes} 0
fix             mytth2 H2 spring tether 0.5 5 5 ${zdes} 0
fix             mytth2 H2 spring tether 0.5 5 5 -3.3 0
run             10000
Generated 0 of 1 mixed pair_coeff terms from geometric mixing rule
Per MPI rank memory allocation (min/avg/max) = 14.61 | 14.61 | 14.61 Mbytes
   Step          Temp          E_pair         E_mol          TotEng         Press     
   2360000   296.64708      376.5087       18505.297      19306.245     -386.84696    
   2361000   286.3383       372.29657      18509.062      19291.048     -508.61198    
   2362000   283.54504      370.64784      18507.326      19283.667     -493.72007    
   2363000   285.47468      381.96688      18503.742      19294.163     -238.35784    
   2364000   288.92535      373.74954      18517.459      19304.599     -470.21792    
   2365000   294.84197      369.36795      18526.301      19317.526     -784.46845    
   2366000   285.13764      379.74673      18533.055      19320.774     -160.36106    
   2367000   313.99989      380.7169       18503.284      19333.268     -343.77539    
   2368000   305.52807      370.45624      18532.24       19339.842     -594.50087    
   2369000   315.93119      373.37438      18520.737      19346.142     -453.58996    
   2370000   313.77713      378.02279      18519.049      19346.021     -262.22063    
Loop time of 2.62772 on 4 procs for 10000 steps with 481 atoms

Performance: 16.440 ns/day, 1.460 hours/ns, 3805.579 timesteps/s, 1.830 Matom-step/s
98.6% CPU use with 4 MPI tasks x no OpenMP threads

MPI task timing breakdown:
Section |  min time  |  avg time  |  max time  |%varavg| %total
---------------------------------------------------------------
Pair    | 0.36163    | 0.6403     | 0.90287    |  24.3 | 24.37
Bond    | 0.80134    | 0.89416    | 0.99617    |   8.1 | 34.03
Neigh   | 0.026261   | 0.026291   | 0.026321   |   0.0 |  1.00
Comm    | 0.58915    | 0.95208    | 1.1884     |  23.2 | 36.23
Output  | 0.00027863 | 0.00031067 | 0.0003955  |   0.0 |  0.01
Modify  | 0.074752   | 0.076797   | 0.078734   |   0.6 |  2.92
Other   |            | 0.03779    |            |       |  1.44

Nlocal:         120.25 ave         125 max         116 min
Histogram: 2 0 0 0 0 0 0 0 1 1
Nghost:        4177.25 ave        4197 max        4157 min
Histogram: 2 0 0 0 0 0 0 0 0 2
Neighs:              0 ave           0 max           0 min
Histogram: 4 0 0 0 0 0 0 0 0 0

Total # of neighbors = 0
Ave neighs/atom = 0
Ave special neighs/atom = 15.567568
Neighbor list builds = 28
Dangerous builds = 0
fix             myat1 all ave/time 100 10 1000 v_zave v_zdes file simulation_data/abpot/${cpt}.dat
fix             myat1 all ave/time 100 10 1000 v_zave v_zdes file simulation_data/abpot/40.dat
run             50000
Generated 0 of 1 mixed pair_coeff terms from geometric mixing rule
Per MPI rank memory allocation (min/avg/max) = 14.61 | 14.61 | 14.61 Mbytes
   Step          Temp          E_pair         E_mol          TotEng         Press     
   2370000   313.77713      378.02279      18519.049      19346.021     -262.22063    
   2371000   299.31943      379.74263      18517.507      19325.513     -412.57092    
   2372000   294.0434       376.68607      18512.046      19309.446     -411.30234    
   2373000   284.98102      371.61725      18502.437      19281.802     -454.02396    
   2374000   277.24824      384.77227      18498.074      19279.53      -0.39267887   
   2375000   277.6201       374.89422      18513.935      19286.045     -497.76199    
   2376000   300.75044      376.95667      18495.122      19302.389     -316.17698    
   2377000   291.39972      374.66296      18514.183      19305.777     -517.90302    
   2378000   289.77373      381.5101       18520.921      19317.036     -174.27468    
   2379000   292.65995      379.65877      18530.239      19328.632     -310.38041    
   2380000   303.68109      374.8822       18530.991      19340.377     -466.37959    
   2381000   308.31597      378.54481      18531.429      19351.109     -396.76837    
   2382000   295.49891      384.295        18539.08       19346.172     -135.38122    
   2383000   306.77827      380.2315       18526.166      19345.332     -221.91328    
   2384000   317.98999      371.20344      18509.411      19335.591     -604.69021    
   2385000   300.21473      378.97407      18493.8        19302.318     -287.05955    
   2386000   271.50869      387.05735      18514.908      19290.437     -38.607291    
   2387000   281.47915      368.76189      18514.144      19285.643     -692.33237    
   2388000   290.73467      374.12977      18510.355      19300.465     -483.99776    
   2389000   303.20328      382.031        18492.586      19308.437     -115.60598    
   2390000   297.04954      377.37559      18514.275      19316.666     -352.2311     
   2391000   301.68024      375.60891      18523.621      19330.871     -405.13786    
   2392000   318.27302      369.7189       18511.662      19336.763     -598.19399    
   2393000   299.08266      377.63961      18532.264      19337.827     -343.89976    
   2394000   311.88169      383.00946      18510.309      19339.555     -70.089881    
   2395000   301.88266      372.75761      18535.383      19340.071     -545.23861    
   2396000   294.30189      372.96607      18530.996      19325.046     -457.55304    
   2397000   288.16988      384.74716      18506.353      19303.41      -224.55981    
   2398000   283.27859      379.17179      18504.81       19289.294     -211.67928    
   2399000   271.20804      366.5713       18513.168      19267.78      -727.05319    
   2400000   289.85082      374.59927      18474.289      19263.603     -379.84033    
   2401000   294.83731      379.37345      18473.614      19274.837     -128.83419    
   2402000   289.33544      376.80078      18490.233      19281.012     -514.67698    
   2403000   303.28682      372.01984      18492.445      19298.404     -444.07444    
   2404000   302.64364      378.38058      18494.452      19305.852     -297.93125    
   2405000   291.84759      377.99597      18516.928      19312.496     -254.31457    
   2406000   298.59115      379.40753      18522.518      19329.146     -300.07966    
   2407000   309.11998      372.50501      18528.875      19343.665     -458.23554    
   2408000   314.99472      376.095        18510.429      19337.215     -382.21872    
   2409000   313.06172      385.40053      18501.084      19334.41      -131.40941    
   2410000   296.95113      375.10553      18517.059      19317.039     -373.21738    
   2411000   285.37692      377.2779       18520.009      19305.601     -461.52129    
   2412000   291.62014      381.31348      18489.787      19288.347     -104.3579     
   2413000   283.94332      377.16888      18501.781      19285.213     -353.4073     
   2414000   288.83036      379.1418       18486.757      19279.154     -332.30646    
   2415000   282.61494      377.56339      18505.127      19287.052     -365.879      
   2416000   291.28277      376.06047      18511.636      19304.461     -323.34772    
   2417000   301.28757      376.06041      18508.919      19316.058     -329.47316    
   2418000   291.60813      375.0542       18530.484      19322.768     -536.99961    
   2419000   294.36742      379.91761      18520.403      19321.498     -293.05605    
   2420000   299.96117      377.09274      18527.339      19333.613     -251.78322    
Loop time of 13.0897 on 4 procs for 50000 steps with 481 atoms

Performance: 16.502 ns/day, 1.454 hours/ns, 3819.794 timesteps/s, 1.837 Matom-step/s
98.7% CPU use with 4 MPI tasks x no OpenMP threads

MPI task timing breakdown:
Section |  min time  |  avg time  |  max time  |%varavg| %total
---------------------------------------------------------------
Pair    | 1.8771     | 3.1871     | 4.4711     |  52.2 | 24.35
Bond    | 4.0087     | 4.4657     | 4.9681     |  18.2 | 34.12
Neigh   | 0.13723    | 0.13729    | 0.13732    |   0.0 |  1.05
Comm    | 2.9362     | 4.7219     | 5.7998     |  50.5 | 36.07
Output  | 0.0017706  | 0.0026839  | 0.003031   |   1.0 |  0.02
Modify  | 0.38242    | 0.38556    | 0.38836    |   0.4 |  2.95
Other   |            | 0.1895     |            |       |  1.45

Nlocal:         120.25 ave         129 max         111 min
Histogram: 1 0 1 0 0 0 0 0 1 1
Nghost:         4173.5 ave        4203 max        4146 min
Histogram: 1 1 0 0 0 0 0 1 0 1
Neighs:              0 ave           0 max           0 min
Histogram: 4 0 0 0 0 0 0 0 0 0

Total # of neighbors = 0
Ave neighs/atom = 0
Ave special neighs/atom = 15.567568
Neighbor list builds = 148
Dangerous builds = 0
unfix           myat1
next            cpt
jump            SELF loop
variable        zdes equal  -15+0.30*(${cpt}-1)
variable        zdes equal  -15+0.30*(41-1)
fix             mytth2 H2 spring tether ${k1} 5 5 ${zdes} 0
fix             mytth2 H2 spring tether 0.5 5 5 ${zdes} 0
fix             mytth2 H2 spring tether 0.5 5 5 -3 0
run             10000
Generated 0 of 1 mixed pair_coeff terms from geometric mixing rule
Per MPI rank memory allocation (min/avg/max) = 14.61 | 14.61 | 14.61 Mbytes
   Step          Temp          E_pair         E_mol          TotEng         Press     
   2420000   299.96117      377.09274      18527.339      19333.613     -251.78322    
   2421000   303.42092      371.58814      18518.411      19324.131     -670.85788    
   2422000   304.56665      377.90794      18507.462      19321.141     -289.94306    
   2423000   313.14725      378.93987      18493.117      19320.105     -405.28334    
   2424000   299.97786      375.36717      18515.92       19320.492     -399.85635    
   2425000   288.30834      369.96895      18534.637      19317.115     -665.05439    
   2426000   307.41669      382.04412      18498.107      19320         -276.31792    
   2427000   304.74401      380.27216      18499.006      19315.303     -217.10361    
   2428000   301.34352      376.85736      18503.888      19311.905     -426.34897    
   2429000   301.1061       375.35279      18511.331      19317.503     -399.68243    
   2430000   312.29358      380.51721      18499.241      19326.585     -298.89041    
Loop time of 2.72572 on 4 procs for 10000 steps with 481 atoms

Performance: 15.849 ns/day, 1.514 hours/ns, 3668.752 timesteps/s, 1.765 Matom-step/s
97.5% CPU use with 4 MPI tasks x no OpenMP threads

MPI task timing breakdown:
Section |  min time  |  avg time  |  max time  |%varavg| %total
---------------------------------------------------------------
Pair    | 0.40095    | 0.6528     | 0.91189    |  23.0 | 23.95
Bond    | 0.82543    | 0.91119    | 1.0074     |   7.4 | 33.43
Neigh   | 0.024668   | 0.024702   | 0.024731   |   0.0 |  0.91
Comm    | 0.65041    | 1.0024     | 1.2173     |  22.0 | 36.78
Output  | 0.00032908 | 0.00036394 | 0.00045383 |   0.0 |  0.01
Modify  | 0.088634   | 0.092294   | 0.09598    |   1.1 |  3.39
Other   |            | 0.04197    |            |       |  1.54

Nlocal:         120.25 ave         128 max         112 min
Histogram: 1 1 0 0 0 0 0 0 1 1
Nghost:        4171.25 ave        4199 max        4146 min
Histogram: 1 1 0 0 0 0 0 1 0 1
Neighs:              0 ave           0 max           0 min
Histogram: 4 0 0 0 0 0 0 0 0 0

Total # of neighbors = 0
Ave neighs/atom = 0
Ave special neighs/atom = 15.567568
Neighbor list builds = 26
Dangerous builds = 0
fix             myat1 all ave/time 100 10 1000 v_zave v_zdes file simulation_data/abpot/${cpt}.dat
fix             myat1 all ave/time 100 10 1000 v_zave v_zdes file simulation_data/abpot/41.dat
run             50000
Generated 0 of 1 mixed pair_coeff terms from geometric mixing rule
Per MPI rank memory allocation (min/avg/max) = 14.61 | 14.61 | 14.61 Mbytes
   Step          Temp          E_pair         E_mol          TotEng         Press     
   2430000   312.29358      380.51721      18499.241      19326.585     -298.89041    
   2431000   305.40216      374.99719      18528.301      19340.264     -446.42179    
   2432000   311.42734      382.08541      18524.549      19352.221     -169.08636    
   2433000   305.47343      374.07669      18543.702      19354.847     -503.17697    
   2434000   310.16578      378.92705      18530.803      19353.512     -303.55051    
   2435000   308.84569      381.74744      18509.365      19333.005     -183.79285    
   2436000   285.4399       376.93077      18522.818      19308.153     -422.34363    
   2437000   303.84325      380.53594      18491.923      19307.194     -285.2019     
   2438000   293.11516      374.77249      18503.216      19297.374     -286.04293    
   2439000   287.58288      375.85686      18509.676      19297.003     -495.28873    
   2440000   305.88194      380.96171      18493.461      19312.076     -184.72691    
   2441000   283.34747      376.80866      18528.937      19311.156     -553.85066    
   2442000   311.62782      372.93356      18511.791      19330.598     -488.10785    
   2443000   308.99519      379.92973      18520.185      19342.222     -446.21342    
   2444000   299.93206      381.19796      18540.982      19351.32      -164.06614    
   2445000   312.55784      376.49899      18526.987      19350.691     -500.35818    
   2446000   306.59204      375.10074      18524.607      19338.377     -446.10368    
   2447000   299.49667      378.49615      18527.95       19334.963     -315.89322    
   2448000   308.69137      378.02417      18513.694      19333.39      -314.74567    
   2449000   309.68534      369.8645       18516.34       19329.298     -655.05508    
   2450000   309.49654      376.13645      18508.535      19327.495     -336.12746    
   2451000   275.50189      377.31844      18544.272      19315.776     -548.95202    
   2452000   287.41209      377.00255      18508.494      19296.722     -370.10039    
   2453000   295.50692      375.09694      18485.985      19283.89      -391.31212    
   2454000   279.00775      372.08985      18510.08       19281.371     -462.87166    
   2455000   293.25614      379.39866      18490.187      19289.174     -238.45366    
   2456000   297.00621      376.43749      18505.91       19307.301     -319.18983    
   2457000   304.1027       374.86498      18525.592      19335.564     -463.30731    
   2458000   305.4543       378.49471      18524.536      19340.072     -324.07527    
   2459000   293.10512      379.23937      18533.009      19331.62      -350.25674    
   2460000   294.46129      375.91962      18540.042      19337.273     -316.15903    
   2461000   298.00374      372.08449      18538.856      19337.32      -482.50868    
   2462000   297.41167      374.20094      18529.592      19329.326     -456.91254    
   2463000   282.76089      380.02378      18525.006      19309.601     -310.07325    
   2464000   289.71495      377.99223      18507.517      19300.03      -323.10758    
   2465000   289.6766       374.89936      18497.497      19286.862     -456.10316    
   2466000   279.10853      375.77567      18511.043      19286.164     -360.92814    
   2467000   292.34182      381.87075      18503.735      19303.885     -211.59829    
   2468000   288.55302      379.5213       18539.732      19332.112     -333.45566    
   2469000   316.21134      373.87227      18521.001      19347.305     -555.19675    
   2470000   311.81485      378.71243      18527.958      19352.811     -276.69789    
   2471000   302.96485      383.41499      18519.202      19336.096     -38.947738    
   2472000   307.60101      377.70772      18509.886      19327.705     -320.0766     
   2473000   293.58105      377.18117      18527.723      19324.957     -317.5677     
   2474000   297.94064      378.86673      18507.799      19312.955     -237.19455    
   2475000   291.17193      376.70595      18511.689      19305         -342.51446    
   2476000   283.14228      377.04021      18523.39       19305.548     -235.46047    
   2477000   292.73644      375.63543      18500.44       19294.919     -434.07328    
   2478000   296.3452       373.66427      18502.738      19300.41      -366.59486    
   2479000   297.37717      382.2031       18517.679      19325.366     -219.62598    
   2480000   304.36232      376.19629      18536.508      19348.182     -457.41487    
Loop time of 13.1192 on 4 procs for 50000 steps with 481 atoms

Performance: 16.464 ns/day, 1.458 hours/ns, 3811.219 timesteps/s, 1.833 Matom-step/s
98.6% CPU use with 4 MPI tasks x no OpenMP threads

MPI task timing breakdown:
Section |  min time  |  avg time  |  max time  |%varavg| %total
---------------------------------------------------------------
Pair    | 1.9488     | 3.1914     | 4.4824     |  51.3 | 24.33
Bond    | 4.0137     | 4.4705     | 4.9798     |  18.2 | 34.08
Neigh   | 0.13268    | 0.13282    | 0.13296    |   0.0 |  1.01
Comm    | 2.9482     | 4.7425     | 5.7563     |  50.4 | 36.15
Output  | 0.0016852  | 0.0024982  | 0.0027915  |   0.9 |  0.02
Modify  | 0.3805     | 0.388      | 0.39462    |   0.9 |  2.96
Other   |            | 0.1915     |            |       |  1.46

Nlocal:         120.25 ave         128 max         112 min
Histogram: 1 1 0 0 0 0 0 0 0 2
Nghost:         4164.5 ave        4188 max        4141 min
Histogram: 2 0 0 0 0 0 0 0 0 2
Neighs:              0 ave           0 max           0 min
Histogram: 4 0 0 0 0 0 0 0 0 0

Total # of neighbors = 0
Ave neighs/atom = 0
Ave special neighs/atom = 15.567568
Neighbor list builds = 144
Dangerous builds = 0
unfix           myat1
next            cpt
jump            SELF loop
variable        zdes equal  -15+0.30*(${cpt}-1)
variable        zdes equal  -15+0.30*(42-1)
fix             mytth2 H2 spring tether ${k1} 5 5 ${zdes} 0
fix             mytth2 H2 spring tether 0.5 5 5 ${zdes} 0
fix             mytth2 H2 spring tether 0.5 5 5 -2.7 0
run             10000
Generated 0 of 1 mixed pair_coeff terms from geometric mixing rule
Per MPI rank memory allocation (min/avg/max) = 14.61 | 14.61 | 14.61 Mbytes
   Step          Temp          E_pair         E_mol          TotEng         Press     
   2480000   304.36232      376.19629      18536.508      19348.182     -457.41487    
   2481000   314.46886      379.38858      18525.685      19355.012     -318.3727     
   2482000   311.22976      384.96171      18524.583      19354.849     -99.653267    
   2483000   301.20995      378.49026      18533.421      19342.879     -527.9831     
   2484000   297.71674      381.81257      18514.071      19321.853     -385.83607    
   2485000   291.61744      378.45615      18515.515      19311.214     -476.39501    
   2486000   295.47386      377.47301      18509.532      19309.766     -271.36309    
   2487000   292.8571       378.38901      18508.991      19306.397     -421.18047    
   2488000   288.48563      369.69133      18526.598      19309.051     -736.28593    
   2489000   295.46754      380.98053      18519.906      19323.638     -264.85874    
   2490000   300.29175      379.60785      18544.034      19353.296     -343.30495    
Loop time of 2.56866 on 4 procs for 10000 steps with 481 atoms

Performance: 16.818 ns/day, 1.427 hours/ns, 3893.085 timesteps/s, 1.873 Matom-step/s
99.2% CPU use with 4 MPI tasks x no OpenMP threads

MPI task timing breakdown:
Section |  min time  |  avg time  |  max time  |%varavg| %total
---------------------------------------------------------------
Pair    | 0.4052     | 0.62591    | 0.87707    |  21.9 | 24.37
Bond    | 0.79211    | 0.88362    | 0.9862     |   7.9 | 34.40
Neigh   | 0.028179   | 0.028189   | 0.028195   |   0.0 |  1.10
Comm    | 0.57195    | 0.92562    | 1.112      |  22.6 | 36.04
Output  | 0.000344   | 0.00037549 | 0.00045567 |   0.0 |  0.01
Modify  | 0.06823    | 0.068672   | 0.069075   |   0.1 |  2.67
Other   |            | 0.03627    |            |       |  1.41

Nlocal:         120.25 ave         125 max         115 min
Histogram: 1 1 0 0 0 0 0 0 0 2
Nghost:         4176.5 ave        4197 max        4155 min
Histogram: 2 0 0 0 0 0 0 0 0 2
Neighs:              0 ave           0 max           0 min
Histogram: 4 0 0 0 0 0 0 0 0 0

Total # of neighbors = 0
Ave neighs/atom = 0
Ave special neighs/atom = 15.567568
Neighbor list builds = 31
Dangerous builds = 0
fix             myat1 all ave/time 100 10 1000 v_zave v_zdes file simulation_data/abpot/${cpt}.dat
fix             myat1 all ave/time 100 10 1000 v_zave v_zdes file simulation_data/abpot/42.dat
run             50000
Generated 0 of 1 mixed pair_coeff terms from geometric mixing rule
Per MPI rank memory allocation (min/avg/max) = 14.61 | 14.61 | 14.61 Mbytes
   Step          Temp          E_pair         E_mol          TotEng         Press     
   2490000   300.29175      379.60785      18544.034      19353.296     -343.30495    
   2491000   306.37948      375.30187      18560.916      19374.582     -507.98151    
   2492000   323.01553      376.79227      18535.26       19374.22      -457.56194    
   2493000   298.7794       383.13117      18552.729      19363.35      -303.17027    
   2494000   299.56068      383.52668      18535.513      19347.647     -187.50481    
   2495000   290.80615      366.29186      18553.503      19335.877     -785.43659    
   2496000   298.1667       381.08431      18512.501      19320.199     -224.23104    
   2497000   295.30586      386.95696      18499.074      19308.551     -198.59641    
   2498000   290.06875      372.06678      18531.449      19318.542     -552.63549    
   2499000   290.80141      374.16627      18533.69       19323.932     -566.49267    
   2500000   298.54044      375.75874      18533.177      19336.084     -284.36304    
   2501000   305.29063      379.27937      18538.048      19354.134     -509.40491    
   2502000   308.88551      379.82427      18544.058      19365.832     -326.1646     
   2503000   303.79313      374.96222      18562.157      19371.783     -616.49743    
   2504000   320.67864      379.98987      18541.647      19380.461     -225.50905    
   2505000   319.08395      386.93201      18514.361      19357.834     -172.66509    
   2506000   304.76011      375.72572      18513.915      19325.688     -524.11209    
   2507000   297.79249      379.3007       18512.478      19317.857     -269.85422    
   2508000   290.05741      379.57969      18520.087      19314.677     -252.24465    
   2509000   293.7021       375.73312      18507.017      19302.976     -536.23857    
   2510000   285.94506      382.65139      18518.513      19310.292     -151.21389    
   2511000   303.15002      375.12715      18517.141      19326.012     -470.33834    
   2512000   301.84683      375.43424      18531.213      19338.526     -359.73815    
   2513000   315.09936      379.96536      18525.964      19356.77      -214.46169    
   2514000   307.52756      378.52506      18535.94       19354.472     -222.12868    
   2515000   312.61342      377.15056      18524.571      19349.005     -370.16458    
   2516000   300.00503      376.71473      18531.433      19337.392     -381.20156    
   2517000   282.16069      380.51842      18536.778      19321.009     -137.88587    
   2518000   292.79315      380.4969       18504.32       19303.742     -419.74527    
   2519000   281.55498      376.60024      18512.604      19292.05      -437.40913    
   2520000   279.40649      376.95594      18519.369      19296.096     -403.19927    
   2521000   295.22551      379.56946      18498.809      19300.784     -289.07637    
   2522000   283.80492      377.51298      18525.847      19309.425     -446.55398    
   2523000   313.91659      379.37864      18502.977      19331.504     -333.41644    
   2524000   315.59763      379.99577      18507.64       19339.189     -317.94886    
   2525000   322.33207      375.6654       18503.713      19340.568     -369.89885    
   2526000   308.45017      375.288        18520.955      19337.57      -543.96524    
   2527000   290.0092       384.42994      18532.591      19331.963     -186.85791    
   2528000   290.13715      380.42639      18530.799      19326.35      -309.77392    
   2529000   281.82446      379.02696      18538.718      19320.976     -301.02417    
   2530000   298.54737      375.8642       18513.617      19316.639     -425.08355    
   2531000   272.91386      382.38395      18528          19300.866     -307.18163    
   2532000   283.40025      376.82739      18500.472      19282.785     -366.84754    
   2533000   282.26814      380.29427      18489.276      19273.437     -214.74326    
   2534000   278.56892      371.13542      18505.405      19275.114     -557.63098    
   2535000   294.67521      379.67518      18496.86       19298.153     -344.5124     
   2536000   292.14222      383.08312      18513.368      19314.445     -190.31995    
   2537000   299.26604      383.44394      18510.83       19322.46      -251.40835    
   2538000   309.31719      371.2306       18517.913      19331.712     -697.94351    
   2539000   306.59981      378.03992      18511.691      19328.411     -436.19863    
   2540000   299.18556      388.37196      18502.654      19319.097      106.31333    
Loop time of 12.9749 on 4 procs for 50000 steps with 481 atoms

Performance: 16.648 ns/day, 1.442 hours/ns, 3853.594 timesteps/s, 1.854 Matom-step/s
99.0% CPU use with 4 MPI tasks x no OpenMP threads

MPI task timing breakdown:
Section |  min time  |  avg time  |  max time  |%varavg| %total
---------------------------------------------------------------
Pair    | 1.9929     | 3.1644     | 4.4382     |  50.0 | 24.39
Bond    | 3.98       | 4.4407     | 4.9548     |  18.5 | 34.23
Neigh   | 0.12954    | 0.12961    | 0.12969    |   0.0 |  1.00
Comm    | 2.8986     | 4.6836     | 5.6231     |  50.2 | 36.10
Output  | 0.0017492  | 0.0026999  | 0.003071   |   1.1 |  0.02
Modify  | 0.36416    | 0.36822    | 0.37139    |   0.4 |  2.84
Other   |            | 0.1857     |            |       |  1.43

Nlocal:         120.25 ave         129 max         111 min
Histogram: 1 0 1 0 0 0 0 0 1 1
Nghost:         4179.5 ave        4204 max        4157 min
Histogram: 2 0 0 0 0 0 0 0 1 1
Neighs:              0 ave           0 max           0 min
Histogram: 4 0 0 0 0 0 0 0 0 0

Total # of neighbors = 0
Ave neighs/atom = 0
Ave special neighs/atom = 15.567568
Neighbor list builds = 141
Dangerous builds = 0
unfix           myat1
next            cpt
jump            SELF loop
variable        zdes equal  -15+0.30*(${cpt}-1)
variable        zdes equal  -15+0.30*(43-1)
fix             mytth2 H2 spring tether ${k1} 5 5 ${zdes} 0
fix             mytth2 H2 spring tether 0.5 5 5 ${zdes} 0
fix             mytth2 H2 spring tether 0.5 5 5 -2.4 0
run             10000
Generated 0 of 1 mixed pair_coeff terms from geometric mixing rule
Per MPI rank memory allocation (min/avg/max) = 14.61 | 14.61 | 14.61 Mbytes
   Step          Temp          E_pair         E_mol          TotEng         Press     
   2540000   299.18556      388.37196      18502.654      19319.097      106.31333    
   2541000   313.34405      374.98235      18507.404      19330.715     -471.90441    
   2542000   284.43121      378.23278      18543.497      19328.691     -394.9076     
   2543000   294.19554      376.35121      18531.449      19328.732     -416.3612     
   2544000   311.76548      382.19958      18499.844      19328.114     -116.79498    
   2545000   305.14568      384.40554      18499.582      19320.587     -132.15096    
   2546000   293.17961      366.25105      18524.812      19310.541     -817.55862    
   2547000   284.08388      384.63554      18510.31       19301.41      -151.91979    
   2548000   301.19613      382.59692      18491.534      19305.079     -302.18666    
   2549000   287.04735      372.62544      18522.041      19305.37      -718.9895     
   2550000   301.86574      382.72213      18502.414      19317.042     -159.44429    
Loop time of 2.51991 on 4 procs for 10000 steps with 481 atoms

Performance: 17.143 ns/day, 1.400 hours/ns, 3968.398 timesteps/s, 1.909 Matom-step/s
99.6% CPU use with 4 MPI tasks x no OpenMP threads

MPI task timing breakdown:
Section |  min time  |  avg time  |  max time  |%varavg| %total
---------------------------------------------------------------
Pair    | 0.41737    | 0.62008    | 0.8605     |  20.9 | 24.61
Bond    | 0.79348    | 0.87922    | 0.97566    |   7.7 | 34.89
Neigh   | 0.026904   | 0.026931   | 0.026957   |   0.0 |  1.07
Comm    | 0.55593    | 0.89114    | 1.0636     |  21.7 | 35.36
Output  | 0.00022225 | 0.00027356 | 0.00034967 |   0.0 |  0.01
Modify  | 0.065506   | 0.067098   | 0.068759   |   0.5 |  2.66
Other   |            | 0.03516    |            |       |  1.40

Nlocal:         120.25 ave         124 max         116 min
Histogram: 1 0 0 0 0 1 1 0 0 1
Nghost:         4176.5 ave        4198 max        4157 min
Histogram: 1 1 0 0 0 0 0 1 0 1
Neighs:              0 ave           0 max           0 min
Histogram: 4 0 0 0 0 0 0 0 0 0

Total # of neighbors = 0
Ave neighs/atom = 0
Ave special neighs/atom = 15.567568
Neighbor list builds = 30
Dangerous builds = 0
fix             myat1 all ave/time 100 10 1000 v_zave v_zdes file simulation_data/abpot/${cpt}.dat
fix             myat1 all ave/time 100 10 1000 v_zave v_zdes file simulation_data/abpot/43.dat
run             50000
Generated 0 of 1 mixed pair_coeff terms from geometric mixing rule
Per MPI rank memory allocation (min/avg/max) = 14.61 | 14.61 | 14.61 Mbytes
   Step          Temp          E_pair         E_mol          TotEng         Press     
   2550000   301.86574      382.72213      18502.414      19317.042     -159.44429    
   2551000   298.87374      378.06003      18515.643      19321.328     -472.08424    
   2552000   318.92367      380.31627      18508.598      19345.227     -330.64082    
   2553000   320.29583      375.76036      18521.636      19355.672     -484.26503    
   2554000   305.90609      379.90037      18539.65       19357.237     -404.13391    
   2555000   309.21089      383.5356       18527.995      19353.946     -166.2734     
   2556000   307.92597      382.15907      18516.642      19339.378     -218.94721    
   2557000   301.28935      377.67375      18520.293      19329.049     -400.80159    
   2558000   295.51026      384.44665      18502.392      19309.651     -142.59843    
   2559000   298.5592       380.05222      18493.349      19300.576     -380.16784    
   2560000   319.42495      376.8407       18481.538      19315.409     -226.48007    
   2561000   304.91433      375.75822      18512.995      19325.022     -429.58665    
   2562000   294.86827      378.12844      18524.355      19324.378     -553.51761    
   2563000   290.70094      385.7784       18526.017      19327.727     -281.06648    
   2564000   301.96885      376.5465       18524.552      19333.152     -455.65929    
   2565000   303.67771      372.01176      18530.589      19337.099     -604.28853    
   2566000   318.24899      381.81286      18511.558      19348.718     -219.24433    
   2567000   305.48173      384.94244      18531.666      19353.688     -246.29821    
   2568000   305.00421      376.36142      18531.948      19344.706     -371.20971    
   2569000   305.1738       376.05701      18520.108      19332.805     -515.47988    
   2570000   291.52532      377.71626      18517.681      19312.509     -360.44971    
   2571000   296.57501      384.10189      18490.904      19299.342     -193.50545    
   2572000   278.11242      376.81065      18522.117      19296.848     -341.41706    
   2573000   307.18696      373.90444      18496.677      19310.101     -405.47022    
   2574000   301.48047      378.5585       18508.744      19318.657     -304.75585    
   2575000   280.0277       383.07207      18540.603      19324.335     -351.12789    
   2576000   301.58164      375.32365      18548.17       19354.994     -575.70891    
   2577000   312.71757      379.04617      18536.648      19363.127     -233.97419    
   2578000   320.7002       381.59242      18520.456      19360.903     -378.67048    
   2579000   312.66968      381.26679      18530.85       19359.481     -347.37299    
   2580000   305.66445      376.42727      18548.308      19362.077     -641.53459    
   2581000   304.75201      381.46597      18532.463      19349.964     -123.82341    
   2582000   303.6307       377.85324      18524.913      19337.198     -361.28022    
   2583000   301.99675      374.60194      18526.615      19333.311     -546.0769     
   2584000   310.66431      381.14688      18499.104      19324.746     -195.22991    
   2585000   290.79729      376.48037      18528.691      19321.241     -341.32696    
   2586000   290.53626      375.55948      18520.056      19311.312     -412.64462    
   2587000   292.51183      381.25444      18504.892      19304.669     -60.746623    
   2588000   277.37309      376.22576      18516.901      19289.989     -552.29628    
   2589000   279.47634      376.36652      18501.319      19277.557     -477.1345     
   2590000   270.21489      380.7144       18506.845      19274.18      -250.49777    
   2591000   273.94342      372.32624      18519.418      19283.7       -652.31472    
   2592000   292.78902      379.91011      18519.107      19317.936     -294.38183    
   2593000   296.13128      380.07733      18524.372      19328.151     -437.98552    
   2594000   297.8435       380.01614      18530.264      19336.432     -252.56504    
   2595000   294.06398      380.36744      18535.687      19336.798     -287.3366     
   2596000   301.00424      375.26483      18523.255      19329.194     -448.82598    
   2597000   308.65422      381.39059      18514.597      19337.607     -317.16423    
   2598000   290.31126      380.38744      18539.536      19335.297     -295.47096    
   2599000   299.50121      373.426        18518.079      19320.028     -478.01525    
   2600000   307.2123       377.8088       18491.856      19309.221     -196.604      
Loop time of 12.6927 on 4 procs for 50000 steps with 481 atoms

Performance: 17.018 ns/day, 1.410 hours/ns, 3939.274 timesteps/s, 1.895 Matom-step/s
99.4% CPU use with 4 MPI tasks x no OpenMP threads

MPI task timing breakdown:
Section |  min time  |  avg time  |  max time  |%varavg| %total
---------------------------------------------------------------
Pair    | 2.0066     | 3.1178     | 4.3541     |  48.5 | 24.56
Bond    | 3.9712     | 4.4041     | 4.8985     |  17.7 | 34.70
Neigh   | 0.13339    | 0.13344    | 0.13347    |   0.0 |  1.05
Comm    | 2.7714     | 4.5094     | 5.4172     |  49.7 | 35.53
Output  | 0.0015484  | 0.0020941  | 0.0023105  |   0.7 |  0.02
Modify  | 0.33862    | 0.34778    | 0.35777    |   1.4 |  2.74
Other   |            | 0.1781     |            |       |  1.40

Nlocal:         120.25 ave         128 max         113 min
Histogram: 2 0 0 0 0 0 0 0 0 2
Nghost:        4178.75 ave        4202 max        4155 min
Histogram: 2 0 0 0 0 0 0 0 0 2
Neighs:              0 ave           0 max           0 min
Histogram: 4 0 0 0 0 0 0 0 0 0

Total # of neighbors = 0
Ave neighs/atom = 0
Ave special neighs/atom = 15.567568
Neighbor list builds = 148
Dangerous builds = 0
unfix           myat1
next            cpt
jump            SELF loop
variable        zdes equal  -15+0.30*(${cpt}-1)
variable        zdes equal  -15+0.30*(44-1)
fix             mytth2 H2 spring tether ${k1} 5 5 ${zdes} 0
fix             mytth2 H2 spring tether 0.5 5 5 ${zdes} 0
fix             mytth2 H2 spring tether 0.5 5 5 -2.1 0
run             10000
Generated 0 of 1 mixed pair_coeff terms from geometric mixing rule
Per MPI rank memory allocation (min/avg/max) = 14.61 | 14.61 | 14.61 Mbytes
   Step          Temp          E_pair         E_mol          TotEng         Press     
   2600000   307.2123       377.8088       18491.856      19309.221     -196.604      
   2601000   278.56753      378.74355      18508.96       19286.275     -283.94826    
   2602000   289.37003      376.64427      18491.235      19281.907     -442.27607    
   2603000   282.99422      379.3765       18507.442      19291.723     -361.35671    
   2604000   304.37708      379.44391      18494.103      19309.047     -348.52731    
   2605000   285.12033      382.87201      18541.008      19331.827     -429.51657    
   2606000   295.83691      380.69295      18527.605      19331.578     -392.64936    
   2607000   303.50674      379.18734      18519.93       19333.371     -371.67981    
   2608000   300.20279      379.66035      18527.083      19336.27      -322.39373    
   2609000   305.80421      375.54677      18521.434      19334.522     -628.10727    
   2610000   293.08872      380.0406       18527.848      19327.237     -274.92018    
Loop time of 2.5224 on 4 procs for 10000 steps with 481 atoms

Performance: 17.127 ns/day, 1.401 hours/ns, 3964.486 timesteps/s, 1.907 Matom-step/s
99.7% CPU use with 4 MPI tasks x no OpenMP threads

MPI task timing breakdown:
Section |  min time  |  avg time  |  max time  |%varavg| %total
---------------------------------------------------------------
Pair    | 0.42513    | 0.62095    | 0.86649    |  21.0 | 24.62
Bond    | 0.79008    | 0.88084    | 0.98222    |   8.1 | 34.92
Neigh   | 0.02416    | 0.02417    | 0.024182   |   0.0 |  0.96
Comm    | 0.54676    | 0.89181    | 1.0782     |  22.3 | 35.36
Output  | 0.00024079 | 0.00027544 | 0.00033854 |   0.0 |  0.01
Modify  | 0.067452   | 0.069506   | 0.071477   |   0.7 |  2.76
Other   |            | 0.03484    |            |       |  1.38

Nlocal:         120.25 ave         126 max         115 min
Histogram: 2 0 0 0 0 0 0 0 1 1
Nghost:        4147.25 ave        4173 max        4123 min
Histogram: 1 0 1 0 0 0 0 1 0 1
Neighs:              0 ave           0 max           0 min
Histogram: 4 0 0 0 0 0 0 0 0 0

Total # of neighbors = 0
Ave neighs/atom = 0
Ave special neighs/atom = 15.567568
Neighbor list builds = 27
Dangerous builds = 0
fix             myat1 all ave/time 100 10 1000 v_zave v_zdes file simulation_data/abpot/${cpt}.dat
fix             myat1 all ave/time 100 10 1000 v_zave v_zdes file simulation_data/abpot/44.dat
run             50000
Generated 0 of 1 mixed pair_coeff terms from geometric mixing rule
Per MPI rank memory allocation (min/avg/max) = 14.61 | 14.61 | 14.61 Mbytes
   Step          Temp          E_pair         E_mol          TotEng         Press     
   2610000   293.08872      380.0406       18527.848      19327.237     -274.92018    
   2611000   306.54039      376.351        18514.796      19329.741     -306.2764     
   2612000   282.76472      378.79613      18528.723      19312.096     -455.3689     
   2613000   295.48354      375.76962      18503.417      19301.961     -366.49709    
   2614000   294.83884      381.31742      18487.621      19290.79      -108.33489    
   2615000   285.04417      376.19084      18500.361      19284.39      -400.77084    
   2616000   275.51923      377.90037      18519.499      19291.609     -436.72108    
   2617000   303.56689      382.94626      18502.651      19319.937     -213.47996    
   2618000   286.17434      380.69035      18548.942      19339.087     -340.11543    
   2619000   303.88979      377.14979      18533.043      19344.995     -423.44377    
   2620000   311.50124      374.82584      18524.186      19344.704     -299.2048     
   2621000   305.16609      384.1857       18516.435      19337.249     -195.18091    
   2622000   301.36578      377.92123      18527.051      19336.163     -306.34973    
   2623000   296.93635      376.86793      18526.216      19327.937     -467.65118    
   2624000   285.7704       380.92695      18517.917      19307.721     -282.55843    
   2625000   289.06307      377.83209      18499.267      19290.687     -358.09414    
   2626000   281.56026      373.49621      18515.449      19291.799     -468.90213    
   2627000   295.75795      378.96909      18490.318      19292.454     -309.88748    
   2628000   279.43309      377.25268      18529.897      19306.959     -353.50858    
   2629000   303.42492      379.62156      18522.233      19335.991     -253.98319    
   2630000   310.74607      378.31251      18522.42       19345.344     -299.35382    
   2631000   297.54209      377.49133      18537.232      19340.443     -442.71793    
   2632000   310.17937      381.77301      18510.048      19335.623     -64.285852    
   2633000   298.87972      373.85555      18528.057      19329.546     -602.50211    
   2634000   287.64898      376.46367      18532.104      19320.133     -343.70359    
   2635000   316.16641      381.51373      18489.339      19323.22      -160.80781    
   2636000   310.20904      372.14769      18499.752      19315.743     -531.34784    
   2637000   300.85231      372.98628      18500.018      19303.46      -399.06617    
   2638000   289.49878      382.44577      18500.926      19297.583     -186.86866    
   2639000   289.58724      380.71468      18510.463      19305.516     -330.33133    
   2640000   294.87003      373.10592      18525.558      19320.561     -460.78039    
   2641000   302.63932      374.63252      18531.373      19339.018     -466.59684    
   2642000   315.80185      384.14854      18520.87       19356.864     -109.03826    
   2643000   312.20119      375.66156      18534.016      19356.372     -507.99516    
   2644000   307.14935      370.41585      18540.276      19350.157     -558.03463    
   2645000   282.07529      378.75136      18553.577      19335.918     -384.74684    
   2646000   297.96991      380.0608       18519.576      19325.969     -238.67874    
   2647000   296.53897      376.15463      18514.876      19315.315     -306.85795    
   2648000   301.81964      370.68594      18512.329      19314.855     -467.52249    
   2649000   275.59787      379.80302      18524.115      19298.241     -265.22182    
   2650000   289.52992      385.17703      18502.474      19301.908     -54.801356    
   2651000   289.41435      375.98393      18525.377      19315.452     -445.81731    
   2652000   317.84618      375.82648      18529.915      19360.513     -328.73248    
   2653000   309.28448      380.58678      18547.86       19370.967     -300.2475     
   2654000   333.46221      382.8849       18513.35       19373.349     -221.52759    
   2655000   312.95506      374.83595      18529.185      19351.793     -445.95895    
   2656000   301.15603      369.56378      18535.205      19335.659     -634.77398    
   2657000   296.45944      381.59995      18517.215      19322.985     -152.07879    
   2658000   286.05123      381.32396      18517.001      19307.604     -273.22239    
   2659000   297.08132      369.35105      18516.71       19311.122     -520.56453    
   2660000   295.67349      377.20759      18509.072      19309.326     -360.41109    
Loop time of 12.9683 on 4 procs for 50000 steps with 481 atoms

Performance: 16.656 ns/day, 1.441 hours/ns, 3855.551 timesteps/s, 1.855 Matom-step/s
98.8% CPU use with 4 MPI tasks x no OpenMP threads

MPI task timing breakdown:
Section |  min time  |  avg time  |  max time  |%varavg| %total
---------------------------------------------------------------
Pair    | 2.095      | 3.1597     | 4.4092     |  48.1 | 24.37
Bond    | 4.0088     | 4.4541     | 4.9437     |  17.6 | 34.35
Neigh   | 0.1405     | 0.14053    | 0.14056    |   0.0 |  1.08
Comm    | 2.9024     | 4.6412     | 5.5076     |  49.2 | 35.79
Output  | 0.001693   | 0.0027098  | 0.0030888  |   1.1 |  0.02
Modify  | 0.37942    | 0.38258    | 0.38593    |   0.4 |  2.95
Other   |            | 0.1874     |            |       |  1.45

Nlocal:         120.25 ave         128 max         113 min
Histogram: 2 0 0 0 0 0 0 0 0 2
Nghost:        4186.25 ave        4210 max        4162 min
Histogram: 1 1 0 0 0 0 0 0 0 2
Neighs:              0 ave           0 max           0 min
Histogram: 4 0 0 0 0 0 0 0 0 0

Total # of neighbors = 0
Ave neighs/atom = 0
Ave special neighs/atom = 15.567568
Neighbor list builds = 154
Dangerous builds = 0
unfix           myat1
next            cpt
jump            SELF loop
variable        zdes equal  -15+0.30*(${cpt}-1)
variable        zdes equal  -15+0.30*(45-1)
fix             mytth2 H2 spring tether ${k1} 5 5 ${zdes} 0
fix             mytth2 H2 spring tether 0.5 5 5 ${zdes} 0
fix             mytth2 H2 spring tether 0.5 5 5 -1.8 0
run             10000
Generated 0 of 1 mixed pair_coeff terms from geometric mixing rule
Per MPI rank memory allocation (min/avg/max) = 14.61 | 14.61 | 14.61 Mbytes
   Step          Temp          E_pair         E_mol          TotEng         Press     
   2660000   295.67349      377.20759      18509.072      19309.326     -360.41109    
   2661000   288.24452      379.8317       18520.5        19312.749     -289.43862    
   2662000   307.68292      378.64526      18507.151      19326.025     -221.11231    
   2663000   301.8578       374.86474      18530.012      19336.771     -516.94504    
   2664000   306.15433      375.94817      18545.747      19359.737     -401.74492    
   2665000   304.97114      382.89604      18538.949      19358.194     -157.22089    
   2666000   321.15289      372.44437      18537.517      19369.463     -432.86537    
   2667000   323.44504      373.54433      18516.674      19353         -566.33259    
   2668000   308.65415      383.25186      18493.772      19318.643     -76.81034     
   2669000   296.42796      378.25005      18514.474      19316.85      -198.96795    
   2670000   286.33109      374.04544      18528.582      19312.307     -607.74226    
Loop time of 2.58102 on 4 procs for 10000 steps with 481 atoms

Performance: 16.738 ns/day, 1.434 hours/ns, 3874.439 timesteps/s, 1.864 Matom-step/s
99.1% CPU use with 4 MPI tasks x no OpenMP threads

MPI task timing breakdown:
Section |  min time  |  avg time  |  max time  |%varavg| %total
---------------------------------------------------------------
Pair    | 0.39168    | 0.63078    | 0.8843     |  22.4 | 24.44
Bond    | 0.79309    | 0.88807    | 0.99019    |   8.5 | 34.41
Neigh   | 0.026609   | 0.02662    | 0.026635   |   0.0 |  1.03
Comm    | 0.5698     | 0.92601    | 1.1149     |  22.4 | 35.88
Output  | 0.00026546 | 0.00029144 | 0.00036121 |   0.0 |  0.01
Modify  | 0.071641   | 0.072646   | 0.073702   |   0.3 |  2.81
Other   |            | 0.0366     |            |       |  1.42

Nlocal:         120.25 ave         129 max         111 min
Histogram: 1 1 0 0 0 0 0 0 1 1
Nghost:        4162.25 ave        4192 max        4135 min
Histogram: 1 1 0 0 0 0 0 1 0 1
Neighs:              0 ave           0 max           0 min
Histogram: 4 0 0 0 0 0 0 0 0 0

Total # of neighbors = 0
Ave neighs/atom = 0
Ave special neighs/atom = 15.567568
Neighbor list builds = 29
Dangerous builds = 0
fix             myat1 all ave/time 100 10 1000 v_zave v_zdes file simulation_data/abpot/${cpt}.dat
fix             myat1 all ave/time 100 10 1000 v_zave v_zdes file simulation_data/abpot/45.dat
run             50000
Generated 0 of 1 mixed pair_coeff terms from geometric mixing rule
Per MPI rank memory allocation (min/avg/max) = 14.61 | 14.61 | 14.61 Mbytes
   Step          Temp          E_pair         E_mol          TotEng         Press     
   2670000   286.33109      374.04544      18528.582      19312.307     -607.74226    
   2671000   295.66851      377.41629      18515.478      19315.933     -275.1994     
   2672000   293.7661       382.2507       18516.279      19318.847     -399.61373    
   2673000   297.73712      382.55514      18521.512      19330.067     -63.549691    
   2674000   310.21386      369.23104      18525.541      19338.623     -720.27964    
   2675000   306.03633      371.0471       18538.014      19346.935     -512.20671    
   2676000   311.82783      387.36508      18514.533      19348.057     -105.34689    
   2677000   306.74518      376.64596      18538.688      19354.221     -310.55283    
   2678000   307.49147      369.55183      18547.89       19357.397     -614.01772    
   2679000   317.63145      374.59887      18520.287      19349.349     -498.52115    
   2680000   275.27832      388.84518      18536.827      19319.537     -156.84743    
   2681000   292.02801      379.40205      18506.563      19303.795     -288.43449    
   2682000   292.34881      369.36706      18511.461      19299.117     -715.93715    
   2683000   298.92647      375.08127      18500.103      19302.885     -426.36617    
   2684000   285.17746      388.40084      18506.936      19303.366     -73.00157     
   2685000   302.31696      379.97143      18508.857      19321.38      -298.76104    
   2686000   307.09304      368.83176      18528.988      19337.205     -700.86067    
   2687000   302.6902       377.39134      18533.448      19343.925     -390.42962    
   2688000   304.64948      386.96838      18525.653      19348.511     -177.00624    
   2689000   319.43374      382.69699      18513.808      19353.547     -222.08477    
   2690000   292.75784      368.98466      18564.72       19352.579     -796.51328    
   2691000   283.48278      380.13046      18526.805      19312.54      -296.67083    
   2692000   283.52393      387.27027      18498.569      19291.502      22.281277    
   2693000   278.16477      379.1101       18510.899      19288.004     -395.05121    
   2694000   299.62268      372.48375      18492.56       19293.741     -618.1266     
   2695000   282.18534      382.52383      18525.368      19311.639     -8.690295     
   2696000   296.06208      381.59516      18522.317      19327.514     -325.05529    
   2697000   303.80978      379.73547      18529.685      19344.109     -373.10991    
   2698000   329.13545      373.09044      18501.577      19345.591     -543.8336     
   2699000   294.84008      383.7528       18537.323      19342.93      -166.14168    
   2700000   320.8727       379.48667      18501.359      19339.947     -348.1982     
   2701000   303.91874      376.86271      18518.523      19330.229     -252.10559    
   2702000   299.34519      375.72785      18506.772      19310.799     -567.77135    
   2703000   297.31771      380.62766      18489.4        19295.426     -105.92807    
   2704000   280.56562      376.31143      18510.443      19288.185     -498.2959     
   2705000   290.20109      375.46514      18500.122      19290.804     -322.40925    
   2706000   290.26944      380.37273      18501.281      19296.968     -312.80298    
   2707000   284.65949      381.19815      18520.047      19308.532     -180.22641    
   2708000   290.20266      379.44216      18520.287      19314.948     -249.6437     
   2709000   313.89776      365.52998      18513.187      19327.839     -738.66192    
   2710000   297.90783      387.4593       18517.366      19331.069     -75.834974    
   2711000   313.36371      381.21117      18496.98       19326.548     -304.7758     
   2712000   309.52886      371.01082      18522.687      19336.569     -634.51595    
   2713000   314.20296      372.13453      18514.977      19336.669     -500.20084    
   2714000   297.89663      380.54221      18524.876      19331.646     -433.67671    
   2715000   292.16956      386.48891      18526.035      19330.557     -129.90106    
   2716000   311.24688      371.77003      18514.326      19331.425     -476.08883    
   2717000   300.44359      370.80737      18517.433      19318.112     -771.36503    
   2718000   288.73665      384.04459      18511.691      19308.857     -61.964982    
   2719000   288.91928      383.95456      18498.212      19295.549     -299.45158    
   2720000   283.00493      371.2198       18530.946      19307.086     -664.54089    
Loop time of 12.6338 on 4 procs for 50000 steps with 481 atoms

Performance: 17.097 ns/day, 1.404 hours/ns, 3957.632 timesteps/s, 1.904 Matom-step/s
99.6% CPU use with 4 MPI tasks x no OpenMP threads

MPI task timing breakdown:
Section |  min time  |  avg time  |  max time  |%varavg| %total
---------------------------------------------------------------
Pair    | 2.0765     | 3.1126     | 4.3436     |  47.6 | 24.64
Bond    | 3.9607     | 4.4047     | 4.895      |  17.6 | 34.86
Neigh   | 0.12857    | 0.12864    | 0.12872    |   0.0 |  1.02
Comm    | 2.7492     | 4.4677     | 5.3371     |  49.6 | 35.36
Output  | 0.0014538  | 0.0020576  | 0.0022863  |   0.8 |  0.02
Modify  | 0.33824    | 0.34242    | 0.3456     |   0.5 |  2.71
Other   |            | 0.1757     |            |       |  1.39

Nlocal:         120.25 ave         126 max         115 min
Histogram: 2 0 0 0 0 0 0 0 0 2
Nghost:         4140.5 ave        4160 max        4119 min
Histogram: 2 0 0 0 0 0 0 0 0 2
Neighs:              0 ave           0 max           0 min
Histogram: 4 0 0 0 0 0 0 0 0 0

Total # of neighbors = 0
Ave neighs/atom = 0
Ave special neighs/atom = 15.567568
Neighbor list builds = 143
Dangerous builds = 0
unfix           myat1
next            cpt
jump            SELF loop
variable        zdes equal  -15+0.30*(${cpt}-1)
variable        zdes equal  -15+0.30*(46-1)
fix             mytth2 H2 spring tether ${k1} 5 5 ${zdes} 0
fix             mytth2 H2 spring tether 0.5 5 5 ${zdes} 0
fix             mytth2 H2 spring tether 0.5 5 5 -1.5 0
run             10000
Generated 0 of 1 mixed pair_coeff terms from geometric mixing rule
Per MPI rank memory allocation (min/avg/max) = 14.61 | 14.61 | 14.61 Mbytes
   Step          Temp          E_pair         E_mol          TotEng         Press     
   2720000   283.00493      371.2198       18530.946      19307.086     -664.54089    
   2721000   290.77679      374.1764       18518.187      19308.403     -523.64091    
   2722000   297.73365      380.84218      18514.463      19321.299     -143.72933    
   2723000   305.99941      387.38921      18519.926      19345.135     -114.05348    
   2724000   310.22965      370.29735      18535.569      19349.74      -699.22627    
   2725000   307.899        376.05272      18536.973      19353.564     -449.32235    
   2726000   309.90266      385.5393       18519.08       19348.025     -101.66416    
   2727000   305.62514      378.1115       18520.195      19335.592     -306.65875    
   2728000   300.46694      372.9396       18516.033      19318.877     -518.4306     
   2729000   295.83025      376.63374      18500.281      19300.186     -340.22608    
   2730000   294.66175      381.80514      18485.965      19289.369     -163.24593    
Loop time of 2.54226 on 4 procs for 10000 steps with 481 atoms

Performance: 16.993 ns/day, 1.412 hours/ns, 3933.515 timesteps/s, 1.892 Matom-step/s
99.6% CPU use with 4 MPI tasks x no OpenMP threads

MPI task timing breakdown:
Section |  min time  |  avg time  |  max time  |%varavg| %total
---------------------------------------------------------------
Pair    | 0.38894    | 0.62452    | 0.87153    |  22.0 | 24.57
Bond    | 0.78962    | 0.8813     | 0.9802     |   8.3 | 34.67
Neigh   | 0.026281   | 0.026306   | 0.026332   |   0.0 |  1.03
Comm    | 0.56361    | 0.90532    | 1.0859     |  21.8 | 35.61
Output  | 0.00023675 | 0.0002614  | 0.00032775 |   0.0 |  0.01
Modify  | 0.065284   | 0.069505   | 0.073789   |   1.5 |  2.73
Other   |            | 0.03504    |            |       |  1.38

Nlocal:         120.25 ave         128 max         113 min
Histogram: 1 1 0 0 0 0 0 0 1 1
Nghost:        4192.25 ave        4216 max        4171 min
Histogram: 2 0 0 0 0 0 0 0 1 1
Neighs:              0 ave           0 max           0 min
Histogram: 4 0 0 0 0 0 0 0 0 0

Total # of neighbors = 0
Ave neighs/atom = 0
Ave special neighs/atom = 15.567568
Neighbor list builds = 29
Dangerous builds = 0
fix             myat1 all ave/time 100 10 1000 v_zave v_zdes file simulation_data/abpot/${cpt}.dat
fix             myat1 all ave/time 100 10 1000 v_zave v_zdes file simulation_data/abpot/46.dat
run             50000
Generated 0 of 1 mixed pair_coeff terms from geometric mixing rule
Per MPI rank memory allocation (min/avg/max) = 14.61 | 14.61 | 14.61 Mbytes
   Step          Temp          E_pair         E_mol          TotEng         Press     
   2730000   294.66175      381.80514      18485.965      19289.369     -163.24593    
   2731000   296.62257      377.43025      18501.234      19303.069     -386.35564    
   2732000   294.35257      374.38514      18509.782      19305.324     -491.19689    
   2733000   301.36552      380.60109      18510.005      19321.797     -175.24624    
   2734000   320.69624      384.75217      18487.689      19331.29      -135.56344    
   2735000   297.84473      376.07306      18536.164      19338.39      -396.36459    
   2736000   304.18266      373.01031      18536.545      19344.777     -500.94683    
   2737000   302.40525      384.61207      18526.174      19343.464     -13.071449    
   2738000   292.60824      382.25116      18533.265      19334.177     -223.29382    
   2739000   291.09771      373.44112      18529.63       19319.571     -363.51174    
   2740000   281.27232      374.19212      18521.398      19298.031     -672.04191    
   2741000   281.83085      380.52689      18500.475      19284.242     -338.87097    
   2742000   297.5743       379.69522      18482.132      19287.593     -218.7445     
   2743000   294.69261      373.58963      18501.651      19296.883     -513.47516    
   2744000   296.75307      370.50688      18513.116      19308.214     -501.25756    
   2745000   295.96471      386.82684      18503.095      19313.385     -52.796455    
   2746000   294.56478      375.02817      18524.236      19320.724     -539.91067    
   2747000   300.69         373.4887       18528.307      19332.019     -362.96965    
   2748000   300.93239      370.47566      18527.275      19328.321     -622.83008    
   2749000   289.81893      383.00815      18521.463      19319.14      -178.19413    
   2750000   305.45768      380.51287      18511.007      19328.566     -343.13306    
   2751000   290.17125      368.84529      18541.719      19325.739     -817.77642    
   2752000   303.55747      376.37635      18524.323      19335.026     -280.10676    
   2753000   308.43179      386.15928      18514.402      19341.862     -140.30022    
   2754000   302.34113      377.63722      18537.141      19347.365     -431.51597    
   2755000   321.77792      375.32292      18518.977      19354.696     -466.83208    
   2756000   303.22056      374.88199      18528.452      19337.178     -497.16997    
   2757000   307.14725      386.24204      18510.811      19336.515     -96.957368    
   2758000   312.7073       377.56526      18492.618      19317.602     -293.92484    
   2759000   286.14129      371.80375      18526.418      19307.63      -730.25864    
   2760000   284.58949      382.07466      18513.51       19302.772     -114.13087    
   2761000   268.29126      380.9947       18528.956      19293.819     -274.78456    
   2762000   293.32893      375.69928      18508.197      19303.588     -365.22797    
   2763000   308.21387      374.18537      18509.564      19324.739     -478.42697    
   2764000   305.47323      380.96746      18523.526      19341.561     -183.39058    
   2765000   297.54899      378.96408      18545.623      19350.317     -376.09806    
   2766000   320.9249       374.80251      18517.603      19351.581     -486.8058     
   2767000   311.45755      369.63986      18526.384      19341.654     -703.63696    
   2768000   308.20455      385.73511      18511.736      19338.446     -51.606557    
   2769000   303.49852      378.44613      18515.284      19327.972     -335.01105    
   2770000   304.96555      370.99192      18515.147      19322.48      -602.82275    
   2771000   306.87274      377.85464      18496.767      19313.692     -223.85826    
   2772000   295.65252      384.01354      18485.264      19292.294     -195.23933    
   2773000   284.52879      380.96168      18507.806      19295.868     -241.03103    
   2774000   290.84473      370.07824      18517.089      19303.305     -746.50739    
   2775000   280.21736      382.77069      18524.314      19308.017     -285.50039    
   2776000   300.44198      383.1503       18528.399      19341.418     -241.62318    
   2777000   309.08603      375.67018      18533.793      19351.7       -460.40178    
   2778000   310.88398      372.96964      18536.415      19354.193     -569.90168    
   2779000   304.35099      378.66045      18536.309      19350.432     -341.152      
   2780000   297.21428      383.24645      18528.581      19337.078     -231.26256    
Loop time of 12.9881 on 4 procs for 50000 steps with 481 atoms

Performance: 16.631 ns/day, 1.443 hours/ns, 3849.682 timesteps/s, 1.852 Matom-step/s
98.6% CPU use with 4 MPI tasks x no OpenMP threads

MPI task timing breakdown:
Section |  min time  |  avg time  |  max time  |%varavg| %total
---------------------------------------------------------------
Pair    | 2.1299     | 3.1751     | 4.4235     |  47.9 | 24.45
Bond    | 4.0037     | 4.4538     | 4.9521     |  17.9 | 34.29
Neigh   | 0.12707    | 0.12814    | 0.13019    |   0.4 |  0.99
Comm    | 2.9156     | 4.6564     | 5.5653     |  49.4 | 35.85
Output  | 0.0017415  | 0.0029066  | 0.0033188  |   1.2 |  0.02
Modify  | 0.37611    | 0.38027    | 0.38339    |   0.5 |  2.93
Other   |            | 0.1914     |            |       |  1.47

Nlocal:         120.25 ave         128 max         112 min
Histogram: 1 0 1 0 0 0 0 0 1 1
Nghost:        4171.25 ave        4199 max        4147 min
Histogram: 1 1 0 0 0 0 0 1 0 1
Neighs:              0 ave           0 max           0 min
Histogram: 4 0 0 0 0 0 0 0 0 0

Total # of neighbors = 0
Ave neighs/atom = 0
Ave special neighs/atom = 15.567568
Neighbor list builds = 134
Dangerous builds = 0
unfix           myat1
next            cpt
jump            SELF loop
variable        zdes equal  -15+0.30*(${cpt}-1)
variable        zdes equal  -15+0.30*(47-1)
fix             mytth2 H2 spring tether ${k1} 5 5 ${zdes} 0
fix             mytth2 H2 spring tether 0.5 5 5 ${zdes} 0
fix             mytth2 H2 spring tether 0.5 5 5 -1.2 0
run             10000
Generated 0 of 1 mixed pair_coeff terms from geometric mixing rule
Per MPI rank memory allocation (min/avg/max) = 14.61 | 14.61 | 14.61 Mbytes
   Step          Temp          E_pair         E_mol          TotEng         Press     
   2780000   297.21428      383.24645      18528.581      19337.078     -231.26256    
   2781000   295.60826      379.62902      18524.543      19327.125     -271.69248    
   2782000   284.64276      374.238        18530.31       19311.811     -414.47179    
   2783000   291.67538      377.29842      18511.505      19306.129     -478.76307    
   2784000   294.90321      385.55187      18497.961      19305.457     -20.647041    
   2785000   288.28889      374.67543      18511.834      19298.99      -431.11025    
   2786000   297.44794      371.31217      18517.018      19313.915     -474.61904    
   2787000   288.56825      381.60125      18533.102      19327.583     -138.87282    
   2788000   308.02446      379.45691      18530.966      19351.141     -384.67287    
   2789000   329.26408      378.33695      18527.168      19376.612     -464.71553    
   2790000   316.50162      375.25816      18548.261      19376.366     -389.83944    
Loop time of 2.65456 on 4 procs for 10000 steps with 481 atoms

Performance: 16.274 ns/day, 1.475 hours/ns, 3767.097 timesteps/s, 1.812 Matom-step/s
98.3% CPU use with 4 MPI tasks x no OpenMP threads

MPI task timing breakdown:
Section |  min time  |  avg time  |  max time  |%varavg| %total
---------------------------------------------------------------
Pair    | 0.4347     | 0.6447     | 0.90041    |  21.7 | 24.29
Bond    | 0.80476    | 0.90002    | 1.0053     |   8.3 | 33.90
Neigh   | 0.023124   | 0.023144   | 0.023164   |   0.0 |  0.87
Comm    | 0.60567    | 0.96452    | 1.1583     |  22.4 | 36.33
Output  | 0.00032067 | 0.00035426 | 0.00044321 |   0.0 |  0.01
Modify  | 0.080096   | 0.0825     | 0.084767   |   0.7 |  3.11
Other   |            | 0.03933    |            |       |  1.48

Nlocal:         120.25 ave         127 max         113 min
Histogram: 1 1 0 0 0 0 0 0 0 2
Nghost:        4175.75 ave        4201 max        4149 min
Histogram: 1 0 1 0 0 0 0 0 1 1
Neighs:              0 ave           0 max           0 min
Histogram: 4 0 0 0 0 0 0 0 0 0

Total # of neighbors = 0
Ave neighs/atom = 0
Ave special neighs/atom = 15.567568
Neighbor list builds = 25
Dangerous builds = 0
fix             myat1 all ave/time 100 10 1000 v_zave v_zdes file simulation_data/abpot/${cpt}.dat
fix             myat1 all ave/time 100 10 1000 v_zave v_zdes file simulation_data/abpot/47.dat
run             50000
Generated 0 of 1 mixed pair_coeff terms from geometric mixing rule
Per MPI rank memory allocation (min/avg/max) = 14.61 | 14.61 | 14.61 Mbytes
   Step          Temp          E_pair         E_mol          TotEng         Press     
   2790000   316.50162      375.25816      18548.261      19376.366     -389.83944    
   2791000   313.01774      383.09917      18525.118      19356.08      -166.236      
   2792000   326.0208       380.17031      18495.962      19342.6       -202.74792    
   2793000   299.74092      378.01347      18514.391      19321.27      -455.23974    
   2794000   277.95899      377.45948      18535.345      19310.505     -440.23984    
   2795000   284.89539      381.34256      18513.672      19302.64      -171.37968    
   2796000   295.53969      381.04615      18500.265      19304.166     -271.26524    
   2797000   285.80223      371.40461      18525.8        19306.127     -613.75798    
   2798000   300.86341      383.90857      18495.451      19309.831     -214.25787    
   2799000   321.99763      377.17925      18484.347      19322.237     -248.34651    
   2800000   299.20495      379.26756      18539.096      19346.463     -336.89402    
   2801000   316.51754      382.72521      18523.753      19359.348     -165.41155    
   2802000   307.25636      370.70459      18543.728      19354.051     -838.29117    
   2803000   300.95752      388.09583      18532.921      19351.623     -10.06896     
   2804000   315.82314      374.14624      18510.188      19336.21      -458.08341    
   2805000   309.9049       374.24742      18504.902      19322.558     -582.98749    
   2806000   285.65507      382.76512      18530.471      19321.948     -344.21666    
   2807000   298.28387      380.59074      18514.618      19321.99      -348.20994    
   2808000   316.92588      373.1535       18496.025      19322.633     -342.44527    
   2809000   308.80625      379.19482      18494.5        19315.531     -345.63329    
   2810000   284.38729      377.33796      18531.04       19315.276     -344.23059    
   2811000   301.01888      379.56298      18511.48       19321.738     -419.44755    
   2812000   293.55999      377.29089      18525.266      19322.579     -370.99393    
   2813000   308.1069       374.15912      18526.812      19341.807     -446.14644    
   2814000   310.39037      383.4334       18525.662      19353.199     -192.43584    
   2815000   304.24224      376.28165      18538.426      19350.014     -406.16167    
   2816000   303.80987      375.60061      18550.267      19360.555     -393.28771    
   2817000   294.19404      383.36483      18544.866      19349.16      -133.87       
   2818000   303.64593      372.80982      18519.904      19327.167     -488.77062    
   2819000   295.63884      380.51624      18504.584      19308.097     -225.538      
   2820000   299.56199      380.3582       18493.725      19302.693     -128.15308    
   2821000   294.01089      376.11592      18507.498      19304.282     -433.92276    
   2822000   292.16217      378.21911      18514.443      19310.684     -353.47605    
   2823000   294.37325      378.72478      18507.453      19307.364     -338.42848    
   2824000   306.89906      381.22169      18495.326      19315.655     -175.14621    
   2825000   292.28767      377.70362      18535.675      19331.58      -320.04716    
   2826000   295.98966      372.71553      18554.407      19350.621     -641.24417    
   2827000   310.46378      383.50197      18539.848      19367.558     -224.28561    
   2828000   324.23188      380.21119      18537.269      19381.387     -376.38951    
   2829000   322.70763      377.8686       18555.141      19394.736     -320.68676    
   2830000   322.37805      372.39359      18542.266      19375.915     -625.19884    
   2831000   299.42226      382.05448      18536.008      19346.473     -169.11965    
   2832000   301.48227      381.53772      18521.756      19334.651     -256.2865     
   2833000   290.07071      374.36472      18529.889      19319.283     -507.76393    
   2834000   284.0481       373.71264      18529.211      19309.336     -515.74607    
   2835000   293.87764      380.1897       18507.686      19308.353     -289.89638    
   2836000   294.28603      383.16673      18503.067      19307.295     -189.1178     
   2837000   300.08751      373.80923      18508.28       19311.451     -502.80489    
   2838000   306.64914      376.65411      18513.402      19328.806     -407.79784    
   2839000   311.47657      380.77873      18509.715      19336.151     -179.89654    
   2840000   307.82915      378.85188      18525.591      19344.881     -395.38803    
Loop time of 12.946 on 4 procs for 50000 steps with 481 atoms

Performance: 16.685 ns/day, 1.438 hours/ns, 3862.189 timesteps/s, 1.858 Matom-step/s
98.9% CPU use with 4 MPI tasks x no OpenMP threads

MPI task timing breakdown:
Section |  min time  |  avg time  |  max time  |%varavg| %total
---------------------------------------------------------------
Pair    | 2.1342     | 3.1631     | 4.3985     |  47.4 | 24.43
Bond    | 3.98       | 4.4471     | 4.9543     |  18.3 | 34.35
Neigh   | 0.11923    | 0.11931    | 0.11937    |   0.0 |  0.92
Comm    | 2.9142     | 4.649      | 5.5711     |  49.2 | 35.91
Output  | 0.0016728  | 0.0024933  | 0.0027777  |   0.9 |  0.02
Modify  | 0.36893    | 0.3779     | 0.38594    |   1.1 |  2.92
Other   |            | 0.1871     |            |       |  1.45

Nlocal:         120.25 ave         125 max         115 min
Histogram: 1 0 0 1 0 0 0 0 1 1
Nghost:        4148.75 ave        4169 max        4126 min
Histogram: 1 0 1 0 0 0 0 0 1 1
Neighs:              0 ave           0 max           0 min
Histogram: 4 0 0 0 0 0 0 0 0 0

Total # of neighbors = 0
Ave neighs/atom = 0
Ave special neighs/atom = 15.567568
Neighbor list builds = 129
Dangerous builds = 0
unfix           myat1
next            cpt
jump            SELF loop
variable        zdes equal  -15+0.30*(${cpt}-1)
variable        zdes equal  -15+0.30*(48-1)
fix             mytth2 H2 spring tether ${k1} 5 5 ${zdes} 0
fix             mytth2 H2 spring tether 0.5 5 5 ${zdes} 0
fix             mytth2 H2 spring tether 0.5 5 5 -0.9 0
run             10000
Generated 0 of 1 mixed pair_coeff terms from geometric mixing rule
Per MPI rank memory allocation (min/avg/max) = 14.61 | 14.61 | 14.61 Mbytes
   Step          Temp          E_pair         E_mol          TotEng         Press     
   2840000   307.82915      378.85188      18525.591      19344.881     -395.38803    
   2841000   324.49686      375.41817      18522.828      19362.532     -237.87781    
   2842000   305.81977      377.36532      18541.381      19356.31      -531.78688    
   2843000   312.66209      379.57948      18505.685      19332.618     -286.15631    
   2844000   289.91083      382.25726      18513.243      19310.301     -197.34932    
   2845000   299.70084      373.94361      18499.365      19302.117     -534.3039     
   2846000   293.91186      376.59947      18500.213      19297.338     -428.15039    
   2847000   292.49519      386.1283       18493.035      19297.662     -105.64594    
   2848000   279.45323      368.74194      18534.64       19303.22      -649.70861    
   2849000   293.90635      375.25142      18523.957      19319.726     -521.46602    
   2850000   288.58199      375.64988      18545.787      19334.337     -527.41353    
Loop time of 2.51844 on 4 procs for 10000 steps with 481 atoms

Performance: 17.153 ns/day, 1.399 hours/ns, 3970.714 timesteps/s, 1.910 Matom-step/s
99.6% CPU use with 4 MPI tasks x no OpenMP threads

MPI task timing breakdown:
Section |  min time  |  avg time  |  max time  |%varavg| %total
---------------------------------------------------------------
Pair    | 0.45314    | 0.62223    | 0.86245    |  20.2 | 24.71
Bond    | 0.78903    | 0.88011    | 0.98266    |   8.3 | 34.95
Neigh   | 0.022477   | 0.022496   | 0.022514   |   0.0 |  0.89
Comm    | 0.54748    | 0.89023    | 1.0963     |  22.2 | 35.35
Output  | 0.00023204 | 0.00026012 | 0.00033046 |   0.0 |  0.01
Modify  | 0.067666   | 0.068065   | 0.06853    |   0.1 |  2.70
Other   |            | 0.03504    |            |       |  1.39

Nlocal:         120.25 ave         129 max         112 min
Histogram: 2 0 0 0 0 0 0 0 1 1
Nghost:         4164.5 ave        4193 max        4139 min
Histogram: 1 1 0 0 0 0 0 1 0 1
Neighs:              0 ave           0 max           0 min
Histogram: 4 0 0 0 0 0 0 0 0 0

Total # of neighbors = 0
Ave neighs/atom = 0
Ave special neighs/atom = 15.567568
Neighbor list builds = 25
Dangerous builds = 0
fix             myat1 all ave/time 100 10 1000 v_zave v_zdes file simulation_data/abpot/${cpt}.dat
fix             myat1 all ave/time 100 10 1000 v_zave v_zdes file simulation_data/abpot/48.dat
run             50000
Generated 0 of 1 mixed pair_coeff terms from geometric mixing rule
Per MPI rank memory allocation (min/avg/max) = 14.61 | 14.61 | 14.61 Mbytes
   Step          Temp          E_pair         E_mol          TotEng         Press     
   2850000   288.58199      375.64988      18545.787      19334.337     -527.41353    
   2851000   313.22338      386.89157      18509.894      19344.942     -254.32731    
   2852000   310.20827      370.77905      18528.936      19343.557     -499.28948    
   2853000   310.78729      377.13969      18520.068      19341.878     -463.12594    
   2854000   293.26496      381.57787      18538.791      19339.969     -189.02007    
   2855000   326.2022       378.08217      18483.488      19328.297     -297.17724    
   2856000   293.6816       376.69503      18531.056      19327.948     -509.81821    
   2857000   301.32703      375.05058      18516.407      19322.593     -389.34268    
   2858000   292.34156      378.42395      18518.781      19315.484     -291.03426    
   2859000   297.01358      378.83187      18513.543      19317.338     -313.66802    
   2860000   281.51014      374.10995      18532.994      19309.885     -477.69974    
   2861000   287.52093      375.79492      18509.106      19296.283     -365.66524    
   2862000   296.52016      376.10319      18489.472      19289.833     -233.50763    
   2863000   275.22824      380.72659      18505.323      19279.843     -191.16614    
   2864000   289.25598      378.08488      18488.162      19280.111     -423.25746    
   2865000   289.02154      376.34883      18494.678      19284.556     -420.37418    
   2866000   283.36912      381.77564      18515.154      19302.371     -271.98771    
   2867000   308.61883      375.00109      18505.772      19322.341     -411.73009    
   2868000   297.91745      376.55913      18525.698      19328.514     -371.12778    
   2869000   315.73092      377.89955      18509.077      19338.72      -329.5788     
   2870000   303.43122      377.50002      18526.394      19338.04      -462.98731    
   2871000   296.05411      378.66539      18526.852      19329.109     -266.10674    
   2872000   283.1639       371.3205       18547.102      19323.57      -710.67883    
   2873000   302.18108      379.91794      18493.622      19305.897     -153.81966    
   2874000   280.46896      378.3278       18503.783      19283.403     -249.92937    
   2875000   289.04018      372.94881      18495.604      19282.108     -475.57859    
   2876000   273.69238      378.22581      18518.393      19288.214     -354.75469    
   2877000   277.80104      380.99215      18513.814      19292.281     -218.50717    
   2878000   301.93986      380.93448      18526.573      19339.52      -171.58326    
   2879000   301.1861       378.54553      18533.822      19343.301     -355.74032    
   2880000   323.16887      372.87656      18505.814      19341.077     -502.55884    
   2881000   303.81007      387.60158      18520.683      19342.972     -36.521211    
   2882000   307.45483      378.73822      18515.018      19333.659     -285.33573    
   2883000   304.15668      371.09799      18509.9        19316.182     -516.31657    
   2884000   297.06839      378.01429      18499.227      19302.283     -430.20276    
   2885000   293.94825      381.95152      18490.381      19292.91      -269.76688    
   2886000   297.61604      381.40092      18485.271      19292.498     -367.18831    
   2887000   306.04576      374.82485      18489.494      19302.206     -396.57955    
   2888000   295.31986      375.83075      18520.066      19318.437     -501.16129    
   2889000   300.82788      386.95025      18515.554      19332.925     -50.10147     
   2890000   298.20363      381.26534      18541.732      19349.663     -318.79953    
   2891000   315.28983      370.52743      18534.835      19356.475     -660.04044    
   2892000   312.02721      381.16799      18521.451      19349.064     -211.21412    
   2893000   308.13694      385.06521      18504.783      19330.727     -184.57846    
   2894000   299.85969      372.88719      18528.356      19330.279     -598.64578    
   2895000   313.54807      375.51854      18496.905      19321.045     -333.36945    
   2896000   306.74169      377.70652      18489.878      19306.467     -203.42928    
   2897000   292.91862      381.5811       18503.931      19304.617     -225.26846    
   2898000   281.43875      373.76224      18533.615      19310.056     -638.77388    
   2899000   296.33943      371.8833       18509.841      19305.723     -433.62637    
   2900000   295.92991      387.43892      18513.533      19324.385     -154.97156    
Loop time of 12.6151 on 4 procs for 50000 steps with 481 atoms

Performance: 17.122 ns/day, 1.402 hours/ns, 3963.507 timesteps/s, 1.906 Matom-step/s
99.6% CPU use with 4 MPI tasks x no OpenMP threads

MPI task timing breakdown:
Section |  min time  |  avg time  |  max time  |%varavg| %total
---------------------------------------------------------------
Pair    | 2.1506     | 3.1107     | 4.315      |  46.1 | 24.66
Bond    | 3.9409     | 4.3985     | 4.9148     |  18.5 | 34.87
Neigh   | 0.11892    | 0.11898    | 0.11903    |   0.0 |  0.94
Comm    | 2.7396     | 4.4679     | 5.3877     |  49.6 | 35.42
Output  | 0.001522   | 0.0021752  | 0.0024358  |   0.8 |  0.02
Modify  | 0.33129    | 0.3414     | 0.35227    |   1.5 |  2.71
Other   |            | 0.1754     |            |       |  1.39

Nlocal:         120.25 ave         126 max         115 min
Histogram: 2 0 0 0 0 0 0 0 0 2
Nghost:         4167.5 ave        4190 max        4147 min
Histogram: 2 0 0 0 0 0 0 0 1 1
Neighs:              0 ave           0 max           0 min
Histogram: 4 0 0 0 0 0 0 0 0 0

Total # of neighbors = 0
Ave neighs/atom = 0
Ave special neighs/atom = 15.567568
Neighbor list builds = 132
Dangerous builds = 0
unfix           myat1
next            cpt
jump            SELF loop
variable        zdes equal  -15+0.30*(${cpt}-1)
variable        zdes equal  -15+0.30*(49-1)
fix             mytth2 H2 spring tether ${k1} 5 5 ${zdes} 0
fix             mytth2 H2 spring tether 0.5 5 5 ${zdes} 0
fix             mytth2 H2 spring tether 0.5 5 5 -0.600000000000001 0
run             10000
Generated 0 of 1 mixed pair_coeff terms from geometric mixing rule
Per MPI rank memory allocation (min/avg/max) = 14.61 | 14.61 | 14.61 Mbytes
   Step          Temp          E_pair         E_mol          TotEng         Press     
   2900000   295.92991      387.43892      18513.533      19324.385     -154.97156    
   2901000   317.91109      380.36308      18520.638      19355.864     -99.719005    
   2902000   321.10997      372.91389      18537.003      19369.358     -509.63509    
   2903000   316.5633       371.73622      18540.104      19364.776     -651.22011    
   2904000   309.35636      386.30655      18522.555      19351.485     -30.354382    
   2905000   298.9873       378.44214      18523.29       19329.52      -273.3794     
   2906000   307.39973      370.03893      18514.028      19323.891     -738.08807    
   2907000   290.39365      380.89986      18518.716      19315.108     -193.58315    
   2908000   286.94573      381.49562      18514.571      19306.625     -327.60536    
   2909000   300.22892      375.17931      18506.216      19310.959     -309.13309    
   2910000   290.53819      375.52935      18516.172      19307.4       -534.11795    
Loop time of 2.57294 on 4 procs for 10000 steps with 481 atoms

Performance: 16.790 ns/day, 1.429 hours/ns, 3886.602 timesteps/s, 1.869 Matom-step/s
99.0% CPU use with 4 MPI tasks x no OpenMP threads

MPI task timing breakdown:
Section |  min time  |  avg time  |  max time  |%varavg| %total
---------------------------------------------------------------
Pair    | 0.47415    | 0.6305     | 0.86645    |  19.9 | 24.50
Bond    | 0.79653    | 0.88874    | 0.98957    |   8.2 | 34.54
Neigh   | 0.027318   | 0.027345   | 0.027368   |   0.0 |  1.06
Comm    | 0.57981    | 0.91396    | 1.1401     |  21.9 | 35.52
Output  | 0.00030579 | 0.00034294 | 0.00044204 |   0.0 |  0.01
Modify  | 0.072095   | 0.074788   | 0.077499   |   0.9 |  2.91
Other   |            | 0.03728    |            |       |  1.45

Nlocal:         120.25 ave         128 max         112 min
Histogram: 2 0 0 0 0 0 0 0 0 2
Nghost:        4174.25 ave        4201 max        4148 min
Histogram: 1 1 0 0 0 0 0 0 1 1
Neighs:              0 ave           0 max           0 min
Histogram: 4 0 0 0 0 0 0 0 0 0

Total # of neighbors = 0
Ave neighs/atom = 0
Ave special neighs/atom = 15.567568
Neighbor list builds = 30
Dangerous builds = 0
fix             myat1 all ave/time 100 10 1000 v_zave v_zdes file simulation_data/abpot/${cpt}.dat
fix             myat1 all ave/time 100 10 1000 v_zave v_zdes file simulation_data/abpot/49.dat
run             50000
Generated 0 of 1 mixed pair_coeff terms from geometric mixing rule
Per MPI rank memory allocation (min/avg/max) = 14.61 | 14.61 | 14.61 Mbytes
   Step          Temp          E_pair         E_mol          TotEng         Press     
   2910000   290.53819      375.52935      18516.172      19307.4       -534.11795    
   2911000   296.99476      381.52282      18497.607      19304.067     -266.19443    
   2912000   293.00389      387.12996      18516.403      19322.759     -93.423427    
   2913000   319.47127      372.80091      18522.303      19352.2       -606.79297    
   2914000   307.78265      377.80674      18550.399      19368.578     -439.09307    
   2915000   311.85523      382.82289      18534.498      19363.52      -239.20054    
   2916000   314.75746      380.09146      18519.227      19349.67      -201.38622    
   2917000   297.10946      373.49085      18531.608      19330.2       -557.5787     
   2918000   300.98973      374.79682      18522.289      19327.739     -419.15469    
   2919000   311.3202       382.08391      18495.328      19322.845     -231.72156    
   2920000   290.13029      378.12549      18522.131      19315.372     -249.26533    
   2921000   304.05841      371.79511      18507.039      19313.878     -660.11752    
   2922000   304.58689      372.61672      18509.204      19317.62      -445.08695    
   2923000   302.50971      389.65397      18490.126      19312.607      24.993609    
   2924000   303.99909      371.36563      18520.124      19326.448     -634.86192    
   2925000   312.2374       375.64197      18525.358      19347.746     -493.94325    
   2926000   324.4854       380.51587      18513.681      19358.467     -170.56061    
   2927000   320.54548      381.94627      18524.851      19365.43      -340.91977    
   2928000   310.59183      378.13388      18546.94       19369.465     -373.92269    
   2929000   314.50915      374.3649       18524.012      19348.373     -531.65827    
   2930000   298.16478      381.8197       18509.845      19318.275     -293.06238    
   2931000   302.72914      385.49159      18497.501      19316.134     -104.857      
   2932000   290.79455      377.67529      18525.506      19319.247     -364.19243    
   2933000   295.24138      375.31886      18514.752      19312.499     -576.44022    
   2934000   307.63863      387.15676      18484.611      19311.934     -62.375575    
   2935000   308.70411      385.27997      18487.407      19314.377      8.6074314    
   2936000   298.74175      374.05429      18524.077      19325.567     -617.89308    
   2937000   292.1211       376.56007      18548.188      19342.711     -393.46478    
   2938000   301.5344       386.83893      18533.221      19351.492     -151.0951     
   2939000   300.39701      380.81194      18545.33       19355.946     -220.75006    
   2940000   308.7057       377.17239      18550.03       19368.895     -525.11754    
   2941000   308.41222      375.60686      18528.136      19345.016     -537.61519    
   2942000   290.60945      386.88221      18507.519      19310.202     -78.899769    
   2943000   305.05182      374.1051       18496.957      19307.527     -324.4432     
   2944000   306.0566       373.08781      18494.254      19305.244     -515.79026    
   2945000   285.44563      378.96711      18521.686      19309.065     -223.53758    
   2946000   290.0935       382.64419      18514.641      19312.348     -372.34697    
   2947000   304.92739      381.06862      18506.802      19324.157     -179.36184    
   2948000   299.44207      368.33313      18531.598      19328.369     -797.39755    
   2949000   305.63141      378.54849      18530.063      19345.906     -256.18085    
   2950000   313.25418      389.56309      18522.005      19359.769      76.886636    
   2951000   319.7936       376.23822      18528.373      19362.169     -507.53296    
   2952000   294.30972      375.49502      18551.983      19348.573     -524.31574    
   2953000   290.83742      383.21728      18520.651      19319.995     -207.95809    
   2954000   274.45016      380.00351      18525.992      19298.675     -216.04555    
   2955000   288.68381      380.82515      18505.359      19299.229     -208.97907    
   2956000   294.30643      370.94264      18516.237      19308.27      -493.26858    
   2957000   283.54924      379.50124      18526.977      19312.177     -335.67082    
   2958000   305.91672      386.32794      18504.954      19328.984     -78.809605    
   2959000   310.37894      372.26557      18521.108      19337.46      -593.23982    
   2960000   293.71699      376.49984      18544.66       19341.407     -491.3403     
Loop time of 12.8365 on 4 procs for 50000 steps with 481 atoms

Performance: 16.827 ns/day, 1.426 hours/ns, 3895.151 timesteps/s, 1.874 Matom-step/s
99.1% CPU use with 4 MPI tasks x no OpenMP threads

MPI task timing breakdown:
Section |  min time  |  avg time  |  max time  |%varavg| %total
---------------------------------------------------------------
Pair    | 2.2448     | 3.1414     | 4.3443     |  45.5 | 24.47
Bond    | 3.9813     | 4.4304     | 4.93       |  18.1 | 34.51
Neigh   | 0.13408    | 0.13414    | 0.13418    |   0.0 |  1.04
Comm    | 2.8567     | 4.5532     | 5.5484     |  48.6 | 35.47
Output  | 0.001592   | 0.0023889  | 0.0026862  |   0.9 |  0.02
Modify  | 0.3652     | 0.37779    | 0.3983     |   2.0 |  2.94
Other   |            | 0.1972     |            |       |  1.54

Nlocal:         120.25 ave         127 max         114 min
Histogram: 1 0 1 0 0 0 1 0 0 1
Nghost:        4151.75 ave        4172 max        4128 min
Histogram: 1 0 1 0 0 0 0 0 0 2
Neighs:              0 ave           0 max           0 min
Histogram: 4 0 0 0 0 0 0 0 0 0

Total # of neighbors = 0
Ave neighs/atom = 0
Ave special neighs/atom = 15.567568
Neighbor list builds = 146
Dangerous builds = 0
unfix           myat1
next            cpt
jump            SELF loop
variable        zdes equal  -15+0.30*(${cpt}-1)
variable        zdes equal  -15+0.30*(50-1)
fix             mytth2 H2 spring tether ${k1} 5 5 ${zdes} 0
fix             mytth2 H2 spring tether 0.5 5 5 ${zdes} 0
fix             mytth2 H2 spring tether 0.5 5 5 -0.300000000000001 0
run             10000
Generated 0 of 1 mixed pair_coeff terms from geometric mixing rule
Per MPI rank memory allocation (min/avg/max) = 14.61 | 14.61 | 14.61 Mbytes
   Step          Temp          E_pair         E_mol          TotEng         Press     
   2960000   293.71699      376.49984      18544.66       19341.407     -491.3403     
   2961000   310.177        383.47244      18526.256      19353.527     -238.96394    
   2962000   304.81155      376.15683      18540.171      19352.448     -435.40993    
   2963000   299.1033       373.79946      18539.883      19341.636     -635.45545    
   2964000   287.63787      377.99575      18516.289      19305.834     -319.405      
   2965000   282.13764      382.3244       18506.288      19292.292     -105.28064    
   2966000   293.07608      378.31397      18492.62       19290.264     -225.57992    
   2967000   299.19408      366.88251      18509.562      19304.528     -797.80513    
   2968000   287.43312      387.41867      18519.874      19318.548      35.461719    
   2969000   313.71928      384.69557      18498.976      19332.538     -125.90474    
   2970000   306.85271      370.90319      18525.321      19335.265     -526.36589    
Loop time of 2.51781 on 4 procs for 10000 steps with 481 atoms

Performance: 17.158 ns/day, 1.399 hours/ns, 3971.703 timesteps/s, 1.910 Matom-step/s
99.6% CPU use with 4 MPI tasks x no OpenMP threads

MPI task timing breakdown:
Section |  min time  |  avg time  |  max time  |%varavg| %total
---------------------------------------------------------------
Pair    | 0.48051    | 0.62031    | 0.8526     |  19.6 | 24.64
Bond    | 0.79262    | 0.87922    | 0.97849    |   7.9 | 34.92
Neigh   | 0.027949   | 0.027957   | 0.027968   |   0.0 |  1.11
Comm    | 0.55187    | 0.8866     | 1.1096     |  22.0 | 35.21
Output  | 0.00027287 | 0.00029968 | 0.00036713 |   0.0 |  0.01
Modify  | 0.064814   | 0.06854    | 0.072097   |   1.3 |  2.72
Other   |            | 0.03488    |            |       |  1.39

Nlocal:         120.25 ave         128 max         112 min
Histogram: 1 1 0 0 0 0 0 0 0 2
Nghost:         4164.5 ave        4187 max        4142 min
Histogram: 2 0 0 0 0 0 0 0 0 2
Neighs:              0 ave           0 max           0 min
Histogram: 4 0 0 0 0 0 0 0 0 0

Total # of neighbors = 0
Ave neighs/atom = 0
Ave special neighs/atom = 15.567568
Neighbor list builds = 31
Dangerous builds = 0
fix             myat1 all ave/time 100 10 1000 v_zave v_zdes file simulation_data/abpot/${cpt}.dat
fix             myat1 all ave/time 100 10 1000 v_zave v_zdes file simulation_data/abpot/50.dat
run             50000
Generated 0 of 1 mixed pair_coeff terms from geometric mixing rule
Per MPI rank memory allocation (min/avg/max) = 14.61 | 14.61 | 14.61 Mbytes
   Step          Temp          E_pair         E_mol          TotEng         Press     
   2970000   306.85271      370.90319      18525.321      19335.265     -526.36589    
   2971000   312.70825      376.90373      18523.749      19348.072     -319.89598    
   2972000   314.97444      382.49456      18507.693      19340.849     -132.84682    
   2973000   299.35756      381.29456      18526.495      19336.107     -198.47545    
   2974000   305.42113      377.60028      18520.683      19335.276     -403.52535    
   2975000   281.58197      368.54529      18534.837      19306.266     -784.79067    
   2976000   288.70824      387.46522      18486.862      19287.408      1.7336598    
   2977000   281.94719      378.16289      18499.221      19280.791     -395.64086    
   2978000   277.03213      369.43648      18523.84       19289.651     -657.67784    
   2979000   289.96638      377.50003      18506.807      19299.187     -273.51364    
   2980000   303.80443      378.65117      18494.59       19307.922     -377.05297    
   2981000   290.05783      381.45166      18525.958      19322.421     -333.51025    
   2982000   294.52881      370.05509      18539.065      19330.528     -576.81453    
   2983000   300.45612      381.48937      18523.747      19335.126     -310.66089    
   2984000   299.81135      380.38441      18517.267      19326.618     -320.44873    
   2985000   302.49149      374.01366      18520.007      19326.822     -457.30121    
   2986000   292.86841      376.05995      18535.209      19330.302     -510.92822    
   2987000   303.25386      376.72249      18520.436      19331.051     -265.49471    
   2988000   286.86735      380.62606      18518.84       19309.912     -383.554      
   2989000   299.67253      376.10768      18496.498      19301.373     -333.52491    
   2990000   278.1344       374.82965      18517.375      19290.156     -418.97146    
   2991000   286.68394      381.74872      18490.173      19282.106     -104.09699    
   2992000   296.76444      378.07559      18499.117      19301.8       -438.29853    
   2993000   284.09968      376.29968      18538.332      19321.118     -454.9145     
   2994000   299.87786      378.1166       18526.938      19334.116     -346.69407    
   2995000   309.81498      388.46879      18507.393      19339.142     -41.48644     
   2996000   301.86408      377.66785      18531.817      19341.388     -418.77652    
   2997000   303.54649      372.61353      18526.932      19333.856     -511.48528    
   2998000   298.37802      380.3741       18525.58       19332.87      -230.83683    
   2999000   290.91252      378.82122      18534.975      19330.031     -276.6796     
   3000000   308.80017      373.46988      18508.827      19324.125     -544.12163    
   3001000   283.92535      375.83758      18524.826      19306.901     -391.01378    
   3002000   284.44777      372.07183      18501.375      19280.432     -487.89227    
   3003000   287.82535      381.63975      18474.695      19268.152     -166.53124    
   3004000   273.75401      375.01388      18501.05       19267.748     -296.73974    
   3005000   272.56092      371.35784      18525.199      19286.534     -575.82133    
   3006000   294.0407       381.89744      18501.254      19303.862     -165.05819    
   3007000   301.80379      369.64367      18501.837      19303.299     -610.40503    
   3008000   290.29137      376.64296      18521.276      19313.265     -463.52473    
   3009000   291.75335      381.32327      18522.751      19321.511     -296.12937    
   3010000   299.33693      377.25054      18529.916      19335.455     -400.17207    
   3011000   299.49931      382.4186       18533.608      19344.547     -171.75826    
   3012000   285.43605      372.73142      18563.086      19344.216     -681.50769    
   3013000   311.6168       384.92952      18518.803      19349.59      -85.772847    
   3014000   299.38245      383.41418      18524.954      19336.722     -175.77863    
   3015000   315.81101      369.67363      18497.077      19318.61      -662.73232    
   3016000   286.54056      375.85793      18515.67       19301.507     -349.32928    
   3017000   289.34844      381.81113      18498.038      19293.845     -160.68887    
   3018000   291.48988      382.85752      18493.962      19293.88      -223.37762    
   3019000   287.68252      374.38053      18524.847      19310.84      -377.57712    
   3020000   304.21244      377.80953      18501.967      19315.04      -370.66503    
Loop time of 12.697 on 4 procs for 50000 steps with 481 atoms

Performance: 17.012 ns/day, 1.411 hours/ns, 3937.934 timesteps/s, 1.894 Matom-step/s
99.4% CPU use with 4 MPI tasks x no OpenMP threads

MPI task timing breakdown:
Section |  min time  |  avg time  |  max time  |%varavg| %total
---------------------------------------------------------------
Pair    | 2.2693     | 3.1285     | 4.3222     |  44.9 | 24.64
Bond    | 3.9577     | 4.4123     | 4.9203     |  18.5 | 34.75
Neigh   | 0.13832    | 0.13845    | 0.13857    |   0.0 |  1.09
Comm    | 2.787      | 4.486      | 5.4992     |  49.0 | 35.33
Output  | 0.0016432  | 0.002456   | 0.0027655  |   0.9 |  0.02
Modify  | 0.34686    | 0.35036    | 0.35323    |   0.4 |  2.76
Other   |            | 0.179      |            |       |  1.41

Nlocal:         120.25 ave         127 max         113 min
Histogram: 1 0 1 0 0 0 0 0 1 1
Nghost:        4156.25 ave        4177 max        4133 min
Histogram: 1 1 0 0 0 0 0 0 0 2
Neighs:              0 ave           0 max           0 min
Histogram: 4 0 0 0 0 0 0 0 0 0

Total # of neighbors = 0
Ave neighs/atom = 0
Ave special neighs/atom = 15.567568
Neighbor list builds = 153
Dangerous builds = 0
unfix           myat1
next            cpt
jump            SELF loop
variable        zdes equal  -15+0.30*(${cpt}-1)
variable        zdes equal  -15+0.30*(51-1)
fix             mytth2 H2 spring tether ${k1} 5 5 ${zdes} 0
fix             mytth2 H2 spring tether 0.5 5 5 ${zdes} 0
fix             mytth2 H2 spring tether 0.5 5 5 0 0
run             10000
Generated 0 of 1 mixed pair_coeff terms from geometric mixing rule
Per MPI rank memory allocation (min/avg/max) = 14.61 | 14.61 | 14.61 Mbytes
   Step          Temp          E_pair         E_mol          TotEng         Press     
   3020000   304.21244      377.80953      18501.967      19315.04      -370.66503    
   3021000   293.93406      383.13066      18516.498      19320.187     -252.19328    
   3022000   300.40745      384.17111      18517.759      19331.75      -122.62978    
   3023000   297.87504      373.34961      18535.072      19334.618     -488.29197    
   3024000   303.41571      373.96076      18526.715      19334.799     -534.28389    
   3025000   303.65774      387.30286      18509.847      19331.62       28.963101    
   3026000   299.47804      378.67116      18526.229      19333.39      -283.69824    
   3027000   301.29795      374.13993      18523.925      19329.159     -548.47552    
   3028000   286.57519      382.82962      18517.754      19310.613     -101.18032    
   3029000   288.91577      380.408        18506.375      19300.16      -407.59216    
   3030000   295.93163      380.52257      18487.791      19291.73      -258.7522     
Loop time of 2.57129 on 4 procs for 10000 steps with 481 atoms

Performance: 16.801 ns/day, 1.428 hours/ns, 3889.096 timesteps/s, 1.871 Matom-step/s
98.9% CPU use with 4 MPI tasks x no OpenMP threads

MPI task timing breakdown:
Section |  min time  |  avg time  |  max time  |%varavg| %total
---------------------------------------------------------------
Pair    | 0.45541    | 0.63244    | 0.87413    |  20.4 | 24.60
Bond    | 0.79673    | 0.88891    | 0.9915     |   8.3 | 34.57
Neigh   | 0.026761   | 0.026796   | 0.026823   |   0.0 |  1.04
Comm    | 0.57102    | 0.91609    | 1.123      |  22.1 | 35.63
Output  | 0.00028475 | 0.00031545 | 0.00039433 |   0.0 |  0.01
Modify  | 0.068379   | 0.069623   | 0.070913   |   0.4 |  2.71
Other   |            | 0.03712    |            |       |  1.44

Nlocal:         120.25 ave         128 max         113 min
Histogram: 2 0 0 0 0 0 0 0 0 2
Nghost:        4157.75 ave        4184 max        4135 min
Histogram: 2 0 0 0 0 0 0 0 1 1
Neighs:              0 ave           0 max           0 min
Histogram: 4 0 0 0 0 0 0 0 0 0

Total # of neighbors = 0
Ave neighs/atom = 0
Ave special neighs/atom = 15.567568
Neighbor list builds = 29
Dangerous builds = 0
fix             myat1 all ave/time 100 10 1000 v_zave v_zdes file simulation_data/abpot/${cpt}.dat
fix             myat1 all ave/time 100 10 1000 v_zave v_zdes file simulation_data/abpot/51.dat
run             50000
Generated 0 of 1 mixed pair_coeff terms from geometric mixing rule
Per MPI rank memory allocation (min/avg/max) = 14.61 | 14.61 | 14.61 Mbytes
   Step          Temp          E_pair         E_mol          TotEng         Press     
   3030000   295.93163      380.52257      18487.791      19291.73      -258.7522     
   3031000   283.38705      375.75648      18502.284      19283.508     -413.02879    
   3032000   284.14529      377.80987      18500.26       19284.621     -412.90394    
   3033000   289.17941      379.84186      18500.731      19294.328     -335.16428    
   3034000   300.61805      372.50347      18511.444      19314.068     -424.05874    
   3035000   295.34274      377.48975      18539.456      19339.519     -381.55042    
   3036000   296.48604      377.40171      18539.499      19341.11      -252.35922    
   3037000   278.91009      377.33091      18559.303      19335.696     -505.54261    
   3038000   288.62709      378.79525      18539.296      19331.055     -373.09341    
   3039000   298.71562      380.15468      18519.462      19327.015     -280.55293    
   3040000   302.73694      372.50237      18512.709      19318.364     -497.45456    
   3041000   287.66869      380.62433      18516.187      19308.404     -194.84809    
   3042000   278.0239       374.38655      18528.39       19300.57      -577.83908    
   3043000   288.2989       377.39313      18500.83       19290.718     -403.26311    
   3044000   278.55283      379.79143      18508.386      19286.727     -194.61694    
   3045000   287.7146       372.01667      18507.777      19291.453     -520.12379    
   3046000   294.051        376.64829      18513.38       19310.753     -377.29928    
   3047000   306.69733      378.90378      18510.237      19327.96      -200.18429    
   3048000   298.29548      377.77781      18540.375      19344.951     -318.96527    
   3049000   301.01157      372.85492      18545.781      19349.32      -581.14563    
   3050000   308.47679      379.35077      18523.98       19344.696     -283.58568    
   3051000   310.14375      379.27167      18510.624      19333.646     -259.23509    
   3052000   295.96095      379.98302      18527.798      19331.239     -315.96513    
   3053000   296.34963      369.46795      18521.93       19315.411     -527.34079    
   3054000   288.0545       379.34014      18505.923      19297.409     -367.12459    
   3055000   290.30453      386.34232      18493.679      19295.386     -79.430534    
   3056000   290.29613      373.49948      18498.621      19287.473     -393.80669    
   3057000   299.28074      373.52203      18494.355      19296.085     -390.37707    
   3058000   303.9288       379.21545      18514.95       19329.023     -242.77045    
   3059000   295.68181      382.87448      18534.118      19340.051     -228.62959    
   3060000   303.78785      380.83778      18541.971      19357.465     -295.23247    
   3061000   303.35772      375.00787      18548.479      19357.527     -533.4894     
   3062000   305.69475      379.04115      18529.962      19346.388     -364.06393    
   3063000   309.66871      386.57327      18503.693      19333.337     -21.936964    
   3064000   289.7955       375.14444      18528.436      19318.216     -500.48872    
   3065000   288.81557      375.13311      18522.415      19310.782     -373.80367    
   3066000   286.84286      379.66084      18506.161      19296.233     -170.68011    
   3067000   293.42563      383.07077      18510.157      19313.058     -142.99626    
   3068000   302.23965      371.78666      18519.02       19323.248     -501.21966    
   3069000   298.25697      379.91203      18522.705      19329.359     -282.60032    
   3070000   317.69607      378.46452      18526.72       19359.74      -332.66916    
   3071000   313.49707      380.23637      18542.48       19371.265     -202.35358    
   3072000   307.73092      371.71874      18562.759      19374.776     -542.34549    
   3073000   308.71543      374.59777      18551.546      19367.851     -405.75303    
   3074000   294.82802      385.06432      18542.355      19349.256     -192.66837    
   3075000   306.25443      376.4491       18524.276      19338.91      -215.12039    
   3076000   311.46088      373.07739      18504.451      19323.163     -528.44333    
   3077000   285.8627       378.6099       18529.007      19316.626     -286.84755    
   3078000   286.04371      383.45711      18519.148      19311.874     -180.36318    
   3079000   287.6789       376.79901      18518.158      19306.565     -276.66364    
   3080000   292.12448      370.6553       18527.649      19316.273     -615.40462    
Loop time of 14.2458 on 4 procs for 50000 steps with 481 atoms

Performance: 15.162 ns/day, 1.583 hours/ns, 3509.808 timesteps/s, 1.688 Matom-step/s
96.0% CPU use with 4 MPI tasks x no OpenMP threads

MPI task timing breakdown:
Section |  min time  |  avg time  |  max time  |%varavg| %total
---------------------------------------------------------------
Pair    | 2.4507     | 3.3335     | 4.6127     |  46.9 | 23.40
Bond    | 4.1481     | 4.6063     | 5.1101     |  18.3 | 32.33
Neigh   | 0.15407    | 0.15411    | 0.15413    |   0.0 |  1.08
Comm    | 3.5467     | 5.3333     | 6.4491     |  47.7 | 37.44
Output  | 0.0018705  | 0.002855   | 0.0032096  |   1.1 |  0.02
Modify  | 0.57121    | 0.57841    | 0.58778    |   0.9 |  4.06
Other   |            | 0.2373     |            |       |  1.67

Nlocal:         120.25 ave         128 max         112 min
Histogram: 1 1 0 0 0 0 0 0 0 2
Nghost:        4165.25 ave        4195 max        4137 min
Histogram: 1 0 1 0 0 0 0 1 0 1
Neighs:              0 ave           0 max           0 min
Histogram: 4 0 0 0 0 0 0 0 0 0

Total # of neighbors = 0
Ave neighs/atom = 0
Ave special neighs/atom = 15.567568
Neighbor list builds = 156
Dangerous builds = 0
unfix           myat1
next            cpt
jump            SELF loop
variable        zdes equal  -15+0.30*(${cpt}-1)
variable        zdes equal  -15+0.30*(52-1)
fix             mytth2 H2 spring tether ${k1} 5 5 ${zdes} 0
fix             mytth2 H2 spring tether 0.5 5 5 ${zdes} 0
fix             mytth2 H2 spring tether 0.5 5 5 0.299999999999999 0
run             10000
Generated 0 of 1 mixed pair_coeff terms from geometric mixing rule
Per MPI rank memory allocation (min/avg/max) = 14.61 | 14.61 | 14.61 Mbytes
   Step          Temp          E_pair         E_mol          TotEng         Press     
   3080000   292.12448      370.6553       18527.649      19316.273     -615.40462    
   3081000   289.48029      380.34119      18517.699      19312.226     -175.26179    
   3082000   300.12252      380.90824      18515.499      19325.819     -209.24901    
   3083000   292.67154      373.81131      18558.593      19351.156     -460.30912    
   3084000   303.00483      373.48427      18552.731      19359.751     -667.34475    
   3085000   310.31553      378.41995      18540.326      19362.742     -156.36339    
   3086000   302.93783      384.00701      18542.69       19360.137     -270.46224    
   3087000   297.28628      370.53747      18543.477      19339.368     -508.60351    
   3088000   304.09512      374.26559      18514.558      19323.919     -391.94679    
   3089000   288.06329      384.48415      18513.922      19310.564     -83.193992    
   3090000   294.75613      377.18268      18516.227      19315.144     -322.40026    
Loop time of 2.75365 on 4 procs for 10000 steps with 481 atoms

Performance: 15.688 ns/day, 1.530 hours/ns, 3631.545 timesteps/s, 1.747 Matom-step/s
96.6% CPU use with 4 MPI tasks x no OpenMP threads

MPI task timing breakdown:
Section |  min time  |  avg time  |  max time  |%varavg| %total
---------------------------------------------------------------
Pair    | 0.45488    | 0.65416    | 0.89859    |  20.7 | 23.76
Bond    | 0.82687    | 0.91061    | 1.0061     |   7.6 | 33.07
Neigh   | 0.028289   | 0.028365   | 0.028443   |   0.0 |  1.03
Comm    | 0.68219    | 1.0214     | 1.2035     |  20.6 | 37.09
Output  | 0.00030204 | 0.0003514  | 0.00046412 |   0.0 |  0.01
Modify  | 0.094468   | 0.095267   | 0.096121   |   0.2 |  3.46
Other   |            | 0.04346    |            |       |  1.58

Nlocal:         120.25 ave         128 max         113 min
Histogram: 2 0 0 0 0 0 0 0 1 1
Nghost:        4156.25 ave        4178 max        4134 min
Histogram: 2 0 0 0 0 0 0 0 0 2
Neighs:              0 ave           0 max           0 min
Histogram: 4 0 0 0 0 0 0 0 0 0

Total # of neighbors = 0
Ave neighs/atom = 0
Ave special neighs/atom = 15.567568
Neighbor list builds = 29
Dangerous builds = 0
fix             myat1 all ave/time 100 10 1000 v_zave v_zdes file simulation_data/abpot/${cpt}.dat
fix             myat1 all ave/time 100 10 1000 v_zave v_zdes file simulation_data/abpot/52.dat
run             50000
Generated 0 of 1 mixed pair_coeff terms from geometric mixing rule
Per MPI rank memory allocation (min/avg/max) = 14.61 | 14.61 | 14.61 Mbytes
   Step          Temp          E_pair         E_mol          TotEng         Press     
   3090000   294.75613      377.18268      18516.227      19315.144     -322.40026    
   3091000   297.7916       373.89833      18520.617      19320.593     -456.76498    
   3092000   291.14698      380.89128      18521.707      19319.168     -193.01915    
   3093000   297.97958      377.32839      18516.553      19320.227     -359.45413    
   3094000   305.5705       380.41004      18513.302      19330.919     -172.43401    
   3095000   297.96082      376.49262      18543.682      19346.493     -385.99798    
   3096000   303.94016      377.03113      18557.119      19369.024     -330.20339    
   3097000   316.91684      384.18921      18541.574      19379.205     -72.720162    
   3098000   318.15168      375.76025      18544.753      19375.722     -439.01844    
   3099000   312.21173      374.79001      18543.948      19365.447     -486.73883    
   3100000   304.70831      381.24177      18517.749      19334.964     -192.57573    
   3101000   307.95825      381.32598      18506.477      19328.427     -185.23468    
   3102000   296.26947      368.78227      18529.641      19322.322     -592.63085    
   3103000   302.9724       377.91822      18502.013      19313.42      -327.40858    
   3104000   309.0583       382.21428      18493.921      19318.332     -121.02994    
   3105000   293.18313      379.27456      18520.69       19319.448     -261.5271     
   3106000   301.108        368.20663      18513.527      19312.556     -693.48008    
   3107000   290.94019      377.98762      18523.489      19317.751     -359.26905    
   3108000   305.76594      387.9105       18498.338      19323.735     -14.702477    
   3109000   304.16241      376.7888       18526.893      19338.874     -391.27019    
   3110000   306.20664      369.45771      18551.709      19359.284     -716.42247    
   3111000   309.13223      381.0327       18536.882      19360.217     -85.649762    
   3112000   322.15968      381.84098      18511.576      19354.36      -136.38282    
   3113000   302.25641      376.28715      18532.599      19341.351     -412.74472    
   3114000   307.55536      369.19305      18510.006      19319.246     -533.77673    
   3115000   286.19081      378.5742       18512.598      19300.651     -284.52335    
   3116000   298.20975      386.1536       18492.068      19304.896      14.498693    
   3117000   293.1388       371.75031      18523.37       19314.54      -413.35451    
   3118000   297.80801      372.68123      18518.759      19317.54      -502.4707     
   3119000   306.28771      381.90107      18497.427      19317.562     -28.3565      
   3120000   296.54528      378.59903      18522.618      19325.51      -482.33831    
   3121000   302.22824      379.07401      18534.916      19346.414     -313.19017    
   3122000   307.23645      371.89705      18551.877      19363.364     -491.68627    
   3123000   310.86895      376.51678      18547.393      19368.697     -409.9117     
   3124000   317.57885      386.89174      18530.465      19371.745     -34.031838    
   3125000   322.97476      369.01361      18530.006      19361.128     -531.32583    
   3126000   301.88162      371.02873      18533.602      19336.56      -580.08696    
   3127000   288.65143      382.68488      18520.54       19316.224      46.225092    
   3128000   292.76339      374.19329      18514.035      19307.111     -578.08804    
   3129000   293.0531       376.69468      18509.404      19305.395     -214.69135    
   3130000   307.25866      371.43921      18494.524      19305.585     -659.68086    
   3131000   295.9409       385.22866      18489.615      19298.272      22.549166    
   3132000   294.09848      377.14943      18511.344      19309.287     -361.68481    
   3133000   291.74181      370.03312      18537.791      19325.245     -671.94316    
   3134000   321.71636      377.80113      18505.87       19343.979     -318.61136    
   3135000   304.12547      387.87805      18527.31       19350.327     -36.14507     
   3136000   321.83879      372.61504      18527.013      19360.111     -563.51318    
   3137000   313.13747      375.71271      18527.503      19351.249     -584.66275    
   3138000   297.68322      379.11012      18526.686      19331.718     -292.48851    
   3139000   277.81477      382.54778      18532.07       19312.112     -309.88745    
   3140000   301.30332      377.71269      18496.467      19305.281     -338.02298    
Loop time of 12.809 on 4 procs for 50000 steps with 481 atoms

Performance: 16.863 ns/day, 1.423 hours/ns, 3903.493 timesteps/s, 1.878 Matom-step/s
99.2% CPU use with 4 MPI tasks x no OpenMP threads

MPI task timing breakdown:
Section |  min time  |  avg time  |  max time  |%varavg| %total
---------------------------------------------------------------
Pair    | 2.3862     | 3.1521     | 4.3387     |  44.3 | 24.61
Bond    | 3.9926     | 4.438      | 4.9517     |  18.3 | 34.65
Neigh   | 0.13547    | 0.13554    | 0.1356     |   0.0 |  1.06
Comm    | 2.8395     | 4.5378     | 5.6359     |  49.2 | 35.43
Output  | 0.0015983  | 0.0023773  | 0.0026918  |   0.9 |  0.02
Modify  | 0.35701    | 0.36005    | 0.3624     |   0.4 |  2.81
Other   |            | 0.1832     |            |       |  1.43

Nlocal:         120.25 ave         131 max         110 min
Histogram: 1 1 0 0 0 0 0 0 1 1
Nghost:        4183.25 ave        4208 max        4155 min
Histogram: 1 1 0 0 0 0 0 0 0 2
Neighs:              0 ave           0 max           0 min
Histogram: 4 0 0 0 0 0 0 0 0 0

Total # of neighbors = 0
Ave neighs/atom = 0
Ave special neighs/atom = 15.567568
Neighbor list builds = 148
Dangerous builds = 0
unfix           myat1
next            cpt
jump            SELF loop
variable        zdes equal  -15+0.30*(${cpt}-1)
variable        zdes equal  -15+0.30*(53-1)
fix             mytth2 H2 spring tether ${k1} 5 5 ${zdes} 0
fix             mytth2 H2 spring tether 0.5 5 5 ${zdes} 0
fix             mytth2 H2 spring tether 0.5 5 5 0.6 0
run             10000
Generated 0 of 1 mixed pair_coeff terms from geometric mixing rule
Per MPI rank memory allocation (min/avg/max) = 14.61 | 14.61 | 14.61 Mbytes
   Step          Temp          E_pair         E_mol          TotEng         Press     
   3140000   301.30332      377.71269      18496.467      19305.281     -338.02298    
   3141000   296.72089      371.29061      18512.161      19307.996     -677.36894    
   3142000   291.05697      383.29034      18504.228      19303.96      -106.77053    
   3143000   290.35771      385.87093      18506.788      19308.1       -98.516342    
   3144000   296.06466      369.52772      18525.884      19319.018     -665.89954    
   3145000   318.09042      374.85105      18496.992      19326.963     -402.45763    
   3146000   296.74627      383.00228      18525.611      19333.194     -312.12707    
   3147000   305.48203      378.30145      18528.034      19343.416     -224.67101    
   3148000   311.60808      375.26269      18529.554      19350.662     -441.66982    
   3149000   313.45347      372.84277      18525.075      19346.403     -641.27698    
   3150000   302.7755       385.17299      18506.329      19324.71      -116.58972    
Loop time of 2.54342 on 4 procs for 10000 steps with 481 atoms

Performance: 16.985 ns/day, 1.413 hours/ns, 3931.721 timesteps/s, 1.891 Matom-step/s
99.3% CPU use with 4 MPI tasks x no OpenMP threads

MPI task timing breakdown:
Section |  min time  |  avg time  |  max time  |%varavg| %total
---------------------------------------------------------------
Pair    | 0.46543    | 0.62914    | 0.86706    |  19.8 | 24.74
Bond    | 0.80143    | 0.88553    | 0.98263    |   7.7 | 34.82
Neigh   | 0.026489   | 0.026528   | 0.026567   |   0.0 |  1.04
Comm    | 0.56355    | 0.89765    | 1.0995     |  21.6 | 35.29
Output  | 0.00027963 | 0.0003081  | 0.00038008 |   0.0 |  0.01
Modify  | 0.067143   | 0.068413   | 0.069653   |   0.4 |  2.69
Other   |            | 0.03586    |            |       |  1.41

Nlocal:         120.25 ave         126 max         115 min
Histogram: 1 0 1 0 0 0 1 0 0 1
Nghost:        4186.25 ave        4206 max        4166 min
Histogram: 1 1 0 0 0 0 0 0 0 2
Neighs:              0 ave           0 max           0 min
Histogram: 4 0 0 0 0 0 0 0 0 0

Total # of neighbors = 0
Ave neighs/atom = 0
Ave special neighs/atom = 15.567568
Neighbor list builds = 29
Dangerous builds = 0
fix             myat1 all ave/time 100 10 1000 v_zave v_zdes file simulation_data/abpot/${cpt}.dat
fix             myat1 all ave/time 100 10 1000 v_zave v_zdes file simulation_data/abpot/53.dat
run             50000
Generated 0 of 1 mixed pair_coeff terms from geometric mixing rule
Per MPI rank memory allocation (min/avg/max) = 14.61 | 14.61 | 14.61 Mbytes
   Step          Temp          E_pair         E_mol          TotEng         Press     
   3150000   302.7755       385.17299      18506.329      19324.71      -116.58972    
   3151000   308.42231      380.97458      18481.197      19303.459     -290.26975    
   3152000   280.4751       369.54281      18526.206      19297.05      -735.83763    
   3153000   285.66406      375.89673      18509.008      19293.629     -310.17013    
   3154000   301.20067      383.66395      18475.137      19289.756     -86.274797    
   3155000   295.0253       376.52146      18507.533      19306.173     -376.66488    
   3156000   295.43735      369.64374      18520.639      19312.991     -670.66838    
   3157000   300.75497      375.62683      18527.012      19332.956     -401.17606    
   3158000   303.36688      388.87992      18516.324      19339.258     -30.943103    
   3159000   313.17646      375.79156      18522.352      19346.233     -379.1178     
   3160000   321.64866      366.73029      18521.038      19347.98      -775.08478    
   3161000   310.03091      383.96512      18506.072      19333.626     -85.059518    
   3162000   299.24528      382.25707      18507.098      19317.512     -113.50771    
   3163000   298.93597      376.28113      18513.319      19317.314     -351.84944    
   3164000   304.22353      367.00888      18510.405      19312.693     -736.51111    
   3165000   294.16333      377.86387      18506.803      19305.552     -365.82843    
   3166000   302.27122      384.08994      18484.248      19300.824      2.7456981    
   3167000   300.23878      367.64129      18505.312      19302.532     -622.17122    
   3168000   296.92559      369.36309      18518.832      19313.033     -586.06846    
   3169000   297.83651      388.13775      18514.028      19328.307     -4.5983807    
   3170000   299.24968      379.71934      18536.001      19343.884     -321.08483    
   3171000   305.88495      371.94589      18539.876      19349.479     -573.55107    
   3172000   302.01685      375.1206       18547.455      19354.697     -329.02032    
   3173000   321.86366      383.13157      18493.99       19337.641     -130.62658    
   3174000   293.74394      383.24123      18520.318      19323.845     -119.43313    
   3175000   299.18995      369.67437      18509.585      19307.337     -567.1802     
   3176000   305.65297      377.66071      18484.454      19299.44      -307.74353    
   3177000   287.10688      386.28932      18500.433      19297.512     -34.927569    
   3178000   295.99151      370.43667      18514.425      19308.363     -690.57624    
   3179000   305.9197       370.89158      18507.669      19316.267     -499.99332    
   3180000   303.82007      375.08794      18508.17       19317.961     -461.35458    
   3181000   291.98721      385.22939      18512.368      19315.369      44.475918    
   3182000   310.65731      376.12895      18508.806      19329.42      -482.27365    
   3183000   308.44759      366.42258      18514.104      19321.849     -751.02864    
   3184000   297.16712      382.39735      18513.966      19321.546     -173.05259    
   3185000   299.43355      382.52764      18513.669      19324.622     -136.20478    
   3186000   313.9597       372.26868      18499.929      19321.408     -559.3048     
   3187000   277.21752      371.94993      18551.739      19320.329     -639.15818    
   3188000   310.48426      381.15847      18490.278      19315.674     -125.73537    
   3189000   287.44806      376.20252      18522.006      19309.486     -362.90409    
   3190000   280.51281      373.49326      18543.657      19318.505     -650.59112    
   3191000   299.90848      377.07415      18510.199      19316.379     -297.2565     
   3192000   299.78609      377.11193      18496.963      19303.005     -380.6001     
   3193000   286.68212      379.3703       18505.637      19295.189     -360.09711    
   3194000   292.11144      366.35276      18503.757      19288.059     -762.59264    
   3195000   295.80321      379.45293      18489.925      19292.61      -278.96549    
   3196000   284.31532      383.52893      18503.988      19294.312     -124.87094    
   3197000   293.34861      373.74054      18509.607      19303.067     -439.02442    
   3198000   314.05071      372.44949      18509.056      19330.846     -467.24111    
   3199000   313.04386      376.02693      18508.839      19332.765     -376.39811    
   3200000   310.77742      385.28227      18501.654      19331.593     -90.490833    
Loop time of 12.8392 on 4 procs for 50000 steps with 481 atoms

Performance: 16.823 ns/day, 1.427 hours/ns, 3894.314 timesteps/s, 1.873 Matom-step/s
99.1% CPU use with 4 MPI tasks x no OpenMP threads

MPI task timing breakdown:
Section |  min time  |  avg time  |  max time  |%varavg| %total
---------------------------------------------------------------
Pair    | 2.4253     | 3.1587     | 4.346      |  44.2 | 24.60
Bond    | 3.997      | 4.4447     | 4.9485     |  18.2 | 34.62
Neigh   | 0.12918    | 0.12926    | 0.12936    |   0.0 |  1.01
Comm    | 2.8639     | 4.5547     | 5.6888     |  49.2 | 35.47
Output  | 0.0015922  | 0.0023366  | 0.002618   |   0.9 |  0.02
Modify  | 0.36233    | 0.36465    | 0.36817    |   0.4 |  2.84
Other   |            | 0.1849     |            |       |  1.44

Nlocal:         120.25 ave         130 max         111 min
Histogram: 2 0 0 0 0 0 0 0 0 2
Nghost:        4192.25 ave        4218 max        4166 min
Histogram: 2 0 0 0 0 0 0 0 0 2
Neighs:              0 ave           0 max           0 min
Histogram: 4 0 0 0 0 0 0 0 0 0

Total # of neighbors = 0
Ave neighs/atom = 0
Ave special neighs/atom = 15.567568
Neighbor list builds = 141
Dangerous builds = 0
unfix           myat1
next            cpt
jump            SELF loop
variable        zdes equal  -15+0.30*(${cpt}-1)
variable        zdes equal  -15+0.30*(54-1)
fix             mytth2 H2 spring tether ${k1} 5 5 ${zdes} 0
fix             mytth2 H2 spring tether 0.5 5 5 ${zdes} 0
fix             mytth2 H2 spring tether 0.5 5 5 0.899999999999999 0
run             10000
Generated 0 of 1 mixed pair_coeff terms from geometric mixing rule
Per MPI rank memory allocation (min/avg/max) = 14.61 | 14.61 | 14.61 Mbytes
   Step          Temp          E_pair         E_mol          TotEng         Press     
   3200000   310.77742      385.28227      18501.654      19331.593     -90.490833    
   3201000   315.33062      374.71803      18515.327      19341.216     -535.59626    
   3202000   299.13865      365.09538      18538.639      19331.739     -933.34219    
   3203000   286.39457      382.75245      18524.216      19316.739     -272.45994    
   3204000   295.26891      380.21321      18486.776      19289.457     -183.78131    
   3205000   278.38809      370.27312      18507.93       19276.518     -569.27501    
   3206000   288.49988      373.39078      18492.191      19278.364     -370.60505    
   3207000   293.9878       380.32391      18483.758      19284.716     -219.63143    
   3208000   276.5315       383.02172      18512.284      19290.964     -99.519701    
   3209000   297.17807      372.80637      18514.605      19312.611     -426.11419    
   3210000   305.84833      370.33912      18505.775      19313.719     -479.7234     
Loop time of 2.57363 on 4 procs for 10000 steps with 481 atoms

Performance: 16.786 ns/day, 1.430 hours/ns, 3885.564 timesteps/s, 1.869 Matom-step/s
99.0% CPU use with 4 MPI tasks x no OpenMP threads

MPI task timing breakdown:
Section |  min time  |  avg time  |  max time  |%varavg| %total
---------------------------------------------------------------
Pair    | 0.49212    | 0.63577    | 0.87231    |  19.6 | 24.70
Bond    | 0.80257    | 0.89028    | 0.9889     |   7.9 | 34.59
Neigh   | 0.025093   | 0.025109   | 0.025125   |   0.0 |  0.98
Comm    | 0.57755    | 0.91214    | 1.1388     |  21.8 | 35.44
Output  | 0.00028321 | 0.00032603 | 0.00041663 |   0.0 |  0.01
Modify  | 0.071985   | 0.072797   | 0.073643   |   0.2 |  2.83
Other   |            | 0.03721    |            |       |  1.45

Nlocal:         120.25 ave         127 max         114 min
Histogram: 2 0 0 0 0 0 0 0 1 1
Nghost:         4167.5 ave        4193 max        4145 min
Histogram: 1 1 0 0 0 0 0 1 0 1
Neighs:              0 ave           0 max           0 min
Histogram: 4 0 0 0 0 0 0 0 0 0

Total # of neighbors = 0
Ave neighs/atom = 0
Ave special neighs/atom = 15.567568
Neighbor list builds = 27
Dangerous builds = 0
fix             myat1 all ave/time 100 10 1000 v_zave v_zdes file simulation_data/abpot/${cpt}.dat
fix             myat1 all ave/time 100 10 1000 v_zave v_zdes file simulation_data/abpot/54.dat
run             50000
Generated 0 of 1 mixed pair_coeff terms from geometric mixing rule
Per MPI rank memory allocation (min/avg/max) = 14.61 | 14.61 | 14.61 Mbytes
   Step          Temp          E_pair         E_mol          TotEng         Press     
   3210000   305.84833      370.33912      18505.775      19313.719     -479.7234     
   3211000   298.60088      380.1421       18515.578      19322.955     -143.78902    
   3212000   297.05937      384.5955       18520.654      19330.279     -35.703904    
   3213000   298.8335       370.55985      18535.895      19334.023     -649.89755    
   3214000   319.41046      375.27897      18496.74       19329.028     -420.92793    
   3215000   305.0791       380.47662      18491.877      19308.857     -135.69478    
   3216000   294.09341      377.74205      18490.883      19289.41      -349.50007    
   3217000   286.21045      371.59404      18498.151      19279.252     -554.73408    
   3218000   278.37731      370.96018      18505.725      19274.985     -424.19213    
   3219000   282.12076      383.5883       18495.2        19282.443     -105.8996     
   3220000   299.61153      371.90655      18499.411      19299.999     -500.18049    
   3221000   301.94626      374.4098       18511.224      19317.655     -408.56986    
   3222000   303.94503      376.49257      18514.578      19325.951     -360.14739    
   3223000   301.91399      380.68788      18505.801      19318.464     -104.81683    
   3224000   303.63181      374.0408       18513.205      19321.678     -365.3499     
   3225000   295.74709      369.32535      18529.632      19322.109     -620.25239    
   3226000   310.38512      379.08222      18492.743      19315.921     -220.65548    
   3227000   321.72371      378.03006      18469.651      19307.999     -142.97412    
   3228000   287.21476      373.16395      18517.98       19302.088     -499.71357    
   3229000   283.76317      375.84484      18501.416      19283.266     -401.08304    
   3230000   282.16751      380.54182      18470.711      19254.975     -185.9229     
   3231000   281.14582      375.90987      18474.18       19252.35      -346.53152    
   3232000   292.70196      370.4202       18476.006      19265.221     -505.41916    
   3233000   279.61424      374.48302      18508.098      19282.65      -551.2873     
   3234000   307.25799      383.7138       18472.655      19295.99      -99.199233    
   3235000   292.39123      377.93454      18510.298      19306.582     -393.43036    
   3236000   289.85588      366.56365      18523.993      19305.279     -643.43936    
   3237000   295.00128      378.86869      18508.395      19309.349     -381.27767    
   3238000   312.81633      382.95753      18495.132      19325.664     -82.338615    
   3239000   303.23506      375.49992      18517.388      19326.753     -443.47888    
   3240000   300.85688      368.67488      18528.251      19327.388     -643.71979    
   3241000   300.71569      380.98651      18516.78       19328.027     -269.03671    
   3242000   303.43242      381.31172      18493.578      19309.038     -292.31528    
   3243000   299.40479      373.34801      18502.314      19304.047     -562.15058    
   3244000   288.09861      371.83702      18508.687      19292.732     -524.3382     
   3245000   275.55179      377.21902      18512.962      19284.437     -420.07714    
   3246000   279.40854      382.27282      18507.277      19289.324     -127.56409    
   3247000   296.96269      373.62561      18500.743      19299.26      -569.66598    
   3248000   306.55045      371.6642       18505.797      19316.07      -556.17673    
   3249000   311.7939       379.43609      18507.874      19333.421     -95.196573    
   3250000   312.84107      376.30492      18513.842      19337.756     -447.84108    
   3251000   293.25386      376.05676      18540.663      19336.304     -329.35256    
   3252000   301.73557      375.79037      18525.884      19333.395     -382.02138    
   3253000   304.70212      374.62903      18504.696      19315.289     -393.42885    
   3254000   301.18612      378.38331      18502.929      19312.246     -144.46661    
   3255000   298.40002      374.21119      18500.578      19301.736     -546.43347    
   3256000   291.37554      373.24797      18507.287      19297.431     -447.09305    
   3257000   311.12255      374.79406      18482.06       19302.005     -335.6916     
   3258000   301.73476      377.60445      18496.853      19306.176     -321.06188    
   3259000   299.60945      371.06954      18513.547      19313.295     -563.58265    
   3260000   285.51856      381.71096      18525.749      19315.977     -286.23285    
Loop time of 12.8534 on 4 procs for 50000 steps with 481 atoms

Performance: 16.805 ns/day, 1.428 hours/ns, 3890.008 timesteps/s, 1.871 Matom-step/s
98.9% CPU use with 4 MPI tasks x no OpenMP threads

MPI task timing breakdown:
Section |  min time  |  avg time  |  max time  |%varavg| %total
---------------------------------------------------------------
Pair    | 2.3926     | 3.1578     | 4.3347     |  44.1 | 24.57
Bond    | 4.0033     | 4.4525     | 4.9622     |  18.2 | 34.64
Neigh   | 0.12385    | 0.12391    | 0.12397    |   0.0 |  0.96
Comm    | 2.8838     | 4.5684     | 5.7842     |  49.6 | 35.54
Output  | 0.0016537  | 0.002412   | 0.0026815  |   0.9 |  0.02
Modify  | 0.36029    | 0.36371    | 0.36655    |   0.4 |  2.83
Other   |            | 0.1847     |            |       |  1.44

Nlocal:         120.25 ave         128 max         112 min
Histogram: 2 0 0 0 0 0 0 0 0 2
Nghost:           4163 ave        4193 max        4138 min
Histogram: 1 1 0 0 0 0 0 1 0 1
Neighs:              0 ave           0 max           0 min
Histogram: 4 0 0 0 0 0 0 0 0 0

Total # of neighbors = 0
Ave neighs/atom = 0
Ave special neighs/atom = 15.567568
Neighbor list builds = 135
Dangerous builds = 0
unfix           myat1
next            cpt
jump            SELF loop
variable        zdes equal  -15+0.30*(${cpt}-1)
variable        zdes equal  -15+0.30*(55-1)
fix             mytth2 H2 spring tether ${k1} 5 5 ${zdes} 0
fix             mytth2 H2 spring tether 0.5 5 5 ${zdes} 0
fix             mytth2 H2 spring tether 0.5 5 5 1.2 0
run             10000
Generated 0 of 1 mixed pair_coeff terms from geometric mixing rule
Per MPI rank memory allocation (min/avg/max) = 14.61 | 14.61 | 14.61 Mbytes
   Step          Temp          E_pair         E_mol          TotEng         Press     
   3260000   285.51856      381.71096      18525.749      19315.977     -286.23285    
   3261000   301.22321      377.64373      18502.49       19311.121     -240.30479    
   3262000   292.01509      369.6744       18521.544      19309.031     -609.4357     
   3263000   312.1306       381.71248      18489.278      19317.584     -187.89208    
   3264000   297.48179      373.08993      18511.004      19309.727     -532.75528    
   3265000   312.6912       377.71318      18498.849      19323.958     -308.23339    
   3266000   312.17981      374.46858      18496.017      19317.149     -353.52413    
   3267000   314.84227      378.17868      18491.579      19320.23      -256.22146    
   3268000   304.87661      382.55171      18498.185      19316.951     -244.91489    
   3269000   305.01527      370.49599      18506.352      19313.261     -538.08437    
   3270000   306.25853      377.67054      18495.294      19311.156     -290.83279    
Loop time of 2.54858 on 4 procs for 10000 steps with 481 atoms

Performance: 16.951 ns/day, 1.416 hours/ns, 3923.752 timesteps/s, 1.887 Matom-step/s
99.3% CPU use with 4 MPI tasks x no OpenMP threads

MPI task timing breakdown:
Section |  min time  |  avg time  |  max time  |%varavg| %total
---------------------------------------------------------------
Pair    | 0.44584    | 0.63       | 0.86125    |  19.7 | 24.72
Bond    | 0.79606    | 0.88648    | 0.9918     |   8.3 | 34.78
Neigh   | 0.024659   | 0.024666   | 0.024672   |   0.0 |  0.97
Comm    | 0.56454    | 0.9021     | 1.1755     |  23.0 | 35.40
Output  | 0.00027279 | 0.00030272 | 0.00037742 |   0.0 |  0.01
Modify  | 0.067519   | 0.068809   | 0.070235   |   0.4 |  2.70
Other   |            | 0.03622    |            |       |  1.42

Nlocal:         120.25 ave         127 max         113 min
Histogram: 1 1 0 0 0 0 0 0 0 2
Nghost:        4183.25 ave        4204 max        4161 min
Histogram: 2 0 0 0 0 0 0 0 0 2
Neighs:              0 ave           0 max           0 min
Histogram: 4 0 0 0 0 0 0 0 0 0

Total # of neighbors = 0
Ave neighs/atom = 0
Ave special neighs/atom = 15.567568
Neighbor list builds = 27
Dangerous builds = 0
fix             myat1 all ave/time 100 10 1000 v_zave v_zdes file simulation_data/abpot/${cpt}.dat
fix             myat1 all ave/time 100 10 1000 v_zave v_zdes file simulation_data/abpot/55.dat
run             50000
Generated 0 of 1 mixed pair_coeff terms from geometric mixing rule
Per MPI rank memory allocation (min/avg/max) = 14.61 | 14.61 | 14.61 Mbytes
   Step          Temp          E_pair         E_mol          TotEng         Press     
   3270000   306.25853      377.67054      18495.294      19311.156     -290.83279    
   3271000   300.9884       377.07314      18497.455      19305.179     -276.02264    
   3272000   278.07231      376.93828      18524.75       19299.551     -487.49527    
   3273000   286.20069      379.18645      18504.829      19293.509     -265.2469     
   3274000   282.05004      374.83142      18508.941      19287.327     -480.22337    
   3275000   302.30548      376.6968       18484.732      19293.964     -211.84985    
   3276000   290.71792      380.28259      18514.109      19310.348     -257.76394    
   3277000   301.21437      374.94654      18519.088      19325.009     -485.28776    
   3278000   304.00866      378.27704      18526.58       19339.829     -195.695      
   3279000   304.13703      375.63472      18531.507      19342.298     -327.10384    
   3280000   311.64486      373.19563      18519.979      19339.072     -535.72013    
   3281000   312.02119      380.20996      18504.397      19331.044     -200.49406    
   3282000   308.74497      374.29519      18499.442      19315.486     -456.92193    
   3283000   282.4087       376.64525      18511.931      19292.644     -274.08742    
   3284000   289.612        380.40062      18493.964      19288.738     -242.19512    
   3285000   275.40806      378.6119       18516.787      19289.45      -377.83219    
   3286000   289.75643      374.43552      18507.495      19296.511     -442.04676    
   3287000   286.2792       381.01962      18513.536      19304.161     -215.9818     
   3288000   318.9704       372.77012      18488.739      19317.888     -462.3085     
   3289000   314.36334      374.66793      18503.117      19327.573     -428.15291    
   3290000   308.13115      382.71859      18513.541      19337.131     -220.5523     
   3291000   310.14653      373.03022      18519.428      19336.212     -469.00297    
   3292000   310.11038      374.88874      18522.23       19340.821     -470.14413    
   3293000   310.16563      380.987        18504.297      19329.066     -60.418527    
   3294000   296.37094      372.88365      18513.359      19310.287     -495.43305    
   3295000   277.4521       377.7001       18514.825      19289.5       -255.37548    
   3296000   279.17225      372.37414      18506.136      19277.946     -372.06771    
   3297000   280.66238      375.66906      18507.461      19284.699     -316.18651    
   3298000   289.96303      380.47387      18501.951      19297.301     -142.00016    
   3299000   311.10848      370.61441      18498.757      19314.502     -503.60383    
   3300000   309.10465      375.7103       18508.037      19326.011     -352.98762    
   3301000   307.11683      379.18014      18508.46       19327.06      -226.71423    
   3302000   314.32032      373.74562      18508.287      19331.759     -460.27693    
   3303000   301.2533       375.27385      18527.696      19334         -421.2512     
   3304000   303.13348      375.31621      18514.621      19323.658     -205.49404    
   3305000   310.78717      377.07905      18498.204      19319.954     -408.78663    
   3306000   294.70626      375.28433      18512.372      19309.319     -308.31175    
   3307000   284.93307      375.6525       18507.632      19290.963     -450.79424    
   3308000   284.35746      374.02271      18488.145      19269.024     -306.29248    
   3309000   276.15449      378.54546      18486.575      19260.239     -302.35731    
   3310000   277.54119      374.26616      18498.481      19269.85      -443.29534    
   3311000   274.42958      374.27782      18512.063      19278.991     -397.1342     
   3312000   281.8536       380.79458      18507.138      19291.205     -296.85289    
   3313000   288.18487      375.65902      18510.936      19298.926     -338.73798    
   3314000   306.10277      375.0027       18494.063      19307.034     -450.97195    
   3315000   293.87322      381.35509      18524.23       19326.056     -221.31312    
   3316000   287.16268      379.75173      18537.037      19327.658     -245.96468    
   3317000   302.04649      378.79448      18525.054      19336.013     -525.40434    
   3318000   328.1099       375.02194      18498.016      19342.494     -301.464      
   3319000   308.8937       375.79686      18528.633      19346.391     -503.95404    
   3320000   316.7067       383.26959      18497.645      19334.055     -60.028445    
Loop time of 13.0292 on 4 procs for 50000 steps with 481 atoms

Performance: 16.578 ns/day, 1.448 hours/ns, 3837.520 timesteps/s, 1.846 Matom-step/s
98.5% CPU use with 4 MPI tasks x no OpenMP threads

MPI task timing breakdown:
Section |  min time  |  avg time  |  max time  |%varavg| %total
---------------------------------------------------------------
Pair    | 2.366      | 3.1855     | 4.3558     |  43.9 | 24.45
Bond    | 4.0249     | 4.471      | 4.9723     |  17.9 | 34.31
Neigh   | 0.12751    | 0.12754    | 0.12756    |   0.0 |  0.98
Comm    | 2.9831     | 4.6549     | 5.9197     |  49.4 | 35.73
Output  | 0.0026456  | 0.0032977  | 0.0035531  |   0.7 |  0.03
Modify  | 0.3923     | 0.39444    | 0.39855    |   0.4 |  3.03
Other   |            | 0.1926     |            |       |  1.48

Nlocal:         120.25 ave         130 max         110 min
Histogram: 1 0 1 0 0 0 0 0 1 1
Nghost:         4170.5 ave        4193 max        4146 min
Histogram: 1 1 0 0 0 0 0 0 0 2
Neighs:              0 ave           0 max           0 min
Histogram: 4 0 0 0 0 0 0 0 0 0

Total # of neighbors = 0
Ave neighs/atom = 0
Ave special neighs/atom = 15.567568
Neighbor list builds = 138
Dangerous builds = 0
unfix           myat1
next            cpt
jump            SELF loop
variable        zdes equal  -15+0.30*(${cpt}-1)
variable        zdes equal  -15+0.30*(56-1)
fix             mytth2 H2 spring tether ${k1} 5 5 ${zdes} 0
fix             mytth2 H2 spring tether 0.5 5 5 ${zdes} 0
fix             mytth2 H2 spring tether 0.5 5 5 1.5 0
run             10000
Generated 0 of 1 mixed pair_coeff terms from geometric mixing rule
Per MPI rank memory allocation (min/avg/max) = 14.61 | 14.61 | 14.61 Mbytes
   Step          Temp          E_pair         E_mol          TotEng         Press     
   3320000   316.7067       383.26959      18497.645      19334.055     -60.028445    
   3321000   313.16102      378.74967      18482.341      19309.158     -299.33751    
   3322000   283.97263      374.07591      18512.421      19292.802     -486.85917    
   3323000   291.62692      376.93067      18496.82       19291.008     -353.63838    
   3324000   290.19849      380.59888      18490.402      19286.214     -117.77805    
   3325000   286.9589       375.58327      18509.885      19296.046     -388.78717    
   3326000   292.12669      371.53065      18525.773      19315.276     -340.30381    
   3327000   313.74396      374.64978      18498.836      19322.388     -384.14977    
   3328000   311.50869      379.87277      18504.948      19330.524     -164.16734    
   3329000   307.99284      378.17599      18514.85       19333.698     -310.86141    
   3330000   296.63856      375.17339      18527.293      19326.894     -227.91974    
Loop time of 2.54071 on 4 procs for 10000 steps with 481 atoms

Performance: 17.003 ns/day, 1.412 hours/ns, 3935.913 timesteps/s, 1.893 Matom-step/s
99.5% CPU use with 4 MPI tasks x no OpenMP threads

MPI task timing breakdown:
Section |  min time  |  avg time  |  max time  |%varavg| %total
---------------------------------------------------------------
Pair    | 0.41154    | 0.62614    | 0.85751    |  20.5 | 24.64
Bond    | 0.78661    | 0.88259    | 0.99156    |   8.8 | 34.74
Neigh   | 0.02562    | 0.025632   | 0.025644   |   0.0 |  1.01
Comm    | 0.56169    | 0.90265    | 1.2126     |  24.3 | 35.53
Output  | 0.00034967 | 0.00037949 | 0.00045146 |   0.0 |  0.01
Modify  | 0.066472   | 0.067522   | 0.068564   |   0.3 |  2.66
Other   |            | 0.03579    |            |       |  1.41

Nlocal:         120.25 ave         128 max         113 min
Histogram: 2 0 0 0 0 0 0 0 1 1
Nghost:         4173.5 ave        4200 max        4150 min
Histogram: 1 1 0 0 0 0 0 1 0 1
Neighs:              0 ave           0 max           0 min
Histogram: 4 0 0 0 0 0 0 0 0 0

Total # of neighbors = 0
Ave neighs/atom = 0
Ave special neighs/atom = 15.567568
Neighbor list builds = 28
Dangerous builds = 0
fix             myat1 all ave/time 100 10 1000 v_zave v_zdes file simulation_data/abpot/${cpt}.dat
fix             myat1 all ave/time 100 10 1000 v_zave v_zdes file simulation_data/abpot/56.dat
run             50000
Generated 0 of 1 mixed pair_coeff terms from geometric mixing rule
Per MPI rank memory allocation (min/avg/max) = 14.61 | 14.61 | 14.61 Mbytes
   Step          Temp          E_pair         E_mol          TotEng         Press     
   3330000   296.63856      375.17339      18527.293      19326.894     -227.91974    
   3331000   279.13192      372.14016      18551.395      19322.914     -468.62859    
   3332000   303.00461      384.53486      18502.441      19320.512     -95.414828    
   3333000   304.12964      376.49314      18503.676      19315.314     -463.26987    
   3334000   297.58365      369.76542      18519.89       19315.435     -526.759      
   3335000   287.90383      380.81698      18512.464      19305.211     -322.07161    
   3336000   289.02229      380.00043      18514.789      19308.319     -228.59012    
   3337000   295.15551      375.69756      18512.423      19310.426     -392.14653    
   3338000   302.49905      376.04575      18505.41       19314.268     -510.85458    
   3339000   301.5932       377.41601      18513.532      19322.464     -366.25411    
   3340000   306.72093      380.94212      18514.799      19334.594     -149.39244    
   3341000   311.46797      375.91865      18522.137      19343.7       -548.47683    
   3342000   300.76498      375.11284      18545.726      19351.17      -489.84548    
   3343000   310.54314      376.84969      18517.293      19338.464     -352.78091    
   3344000   303.97022      378.22811      18518.156      19331.301     -345.73774    
   3345000   314.40069      372.7496       18493.473      19316.064     -455.71371    
   3346000   274.44693      376.50148      18525.184      19294.361     -382.9334     
   3347000   284.6618       375.1242       18503.416      19285.831     -425.11641    
   3348000   290.95834      374.33108      18503.914      19294.545     -426.4815     
   3349000   300.47388      379.00273      18492.028      19300.945     -228.77697    
   3350000   304.77439      369.08667      18504.913      19310.067     -650.74621    
   3351000   306.08336      381.08632      18491.482      19310.509     -114.06514    
   3352000   319.73444      378.31594      18484.96       19320.749     -275.40681    
   3353000   310.50499      371.89999      18505.504      19321.671     -674.02076    
   3354000   301.8911       379.79043      18513.908      19325.641     -226.64502    
   3355000   304.01926      380.19076      18506.99       19322.168     -321.37736    
   3356000   313.93808      376.39239      18496.777      19322.348     -345.5131     
   3357000   305.05849      377.67546      18507.217      19321.367     -344.45446    
   3358000   295.73954      373.42312      18521.412      19317.976     -448.39637    
   3359000   294.2627       382.8249       18514.37       19318.222     -191.4653     
   3360000   295.61735      378.41178      18516.07       19317.448     -113.361      
   3361000   284.12538      371.72795      18533.76       19312.012     -727.11191    
   3362000   304.45788      379.63051      18494.865      19310.11      -319.59306    
   3363000   305.1788       381.03164      18490.941      19308.619     -144.012      
   3364000   279.78329      372.86207      18523.172      19296.345     -580.59231    
   3365000   299.65239      373.97291      18499.584      19302.296     -494.35335    
   3366000   303.23596      379.04409      18489.721      19302.632     -365.29241    
   3367000   300.77323      378.55133      18499.039      19307.933     -374.84865    
   3368000   296.13563      378.1933       18515.774      19317.675     -229.97401    
   3369000   302.93836      373.66596      18528.145      19335.252     -549.0642     
   3370000   299.09277      379.30149      18532.288      19339.528     -345.15636    
   3371000   308.81416      385.30222      18517.1        19344.25      -95.890702    
   3372000   293.58472      374.6206       18547.32       19341.998     -552.86695    
   3373000   294.0363       374.92369      18534.389      19330.017     -572.79893    
   3374000   293.76139      384.85368      18494.673      19299.837     -49.247128    
   3375000   292.68752      377.64278      18494.649      19291.066     -226.44296    
   3376000   277.72169      378.28205      18513.617      19289.261     -396.78058    
   3377000   296.50345      372.0367       18494.56       19290.831     -475.41651    
   3378000   293.9818       379.52199      18499.854      19300.001     -294.38086    
   3379000   302.77206      380.33094      18505.795      19319.329     -73.085834    
   3380000   305.19719      369.40716      18520.695      19326.775     -770.81132    
Loop time of 12.5869 on 4 procs for 50000 steps with 481 atoms

Performance: 17.161 ns/day, 1.399 hours/ns, 3972.381 timesteps/s, 1.911 Matom-step/s
99.5% CPU use with 4 MPI tasks x no OpenMP threads

MPI task timing breakdown:
Section |  min time  |  avg time  |  max time  |%varavg| %total
---------------------------------------------------------------
Pair    | 2.312      | 3.1213     | 4.2581     |  43.0 | 24.80
Bond    | 3.9657     | 4.4054     | 4.9048     |  18.0 | 35.00
Neigh   | 0.13099    | 0.13105    | 0.13111    |   0.0 |  1.04
Comm    | 2.7743     | 4.4089     | 5.6583     |  49.7 | 35.03
Output  | 0.0016843  | 0.0023776  | 0.0026244  |   0.8 |  0.02
Modify  | 0.33739    | 0.34029    | 0.34266    |   0.4 |  2.70
Other   |            | 0.1776     |            |       |  1.41

Nlocal:         120.25 ave         129 max         111 min
Histogram: 1 1 0 0 0 0 0 0 0 2
Nghost:        4171.25 ave        4196 max        4148 min
Histogram: 2 0 0 0 0 0 0 0 0 2
Neighs:              0 ave           0 max           0 min
Histogram: 4 0 0 0 0 0 0 0 0 0

Total # of neighbors = 0
Ave neighs/atom = 0
Ave special neighs/atom = 15.567568
Neighbor list builds = 144
Dangerous builds = 0
unfix           myat1
next            cpt
jump            SELF loop
variable        zdes equal  -15+0.30*(${cpt}-1)
variable        zdes equal  -15+0.30*(57-1)
fix             mytth2 H2 spring tether ${k1} 5 5 ${zdes} 0
fix             mytth2 H2 spring tether 0.5 5 5 ${zdes} 0
fix             mytth2 H2 spring tether 0.5 5 5 1.8 0
run             10000
Generated 0 of 1 mixed pair_coeff terms from geometric mixing rule
Per MPI rank memory allocation (min/avg/max) = 14.61 | 14.61 | 14.61 Mbytes
   Step          Temp          E_pair         E_mol          TotEng         Press     
   3380000   305.19719      369.40716      18520.695      19326.775     -770.81132    
   3381000   314.12764      375.43314      18505.591      19330.474     -266.88211    
   3382000   302.85449      379.03012      18516.159      19328.51      -411.64353    
   3383000   313.46965      375.01579      18505.193      19328.718     -448.45772    
   3384000   304.17407      374.63418      18518.304      19328.148     -416.84735    
   3385000   307.8902       378.82788      18507.297      19326.651     -302.3376     
   3386000   298.05492      377.14525      18509.008      19312.607     -510.04237    
   3387000   306.59012      380.15655      18497.91       19316.732     -249.654      
   3388000   302.07368      371.75434      18513.367      19317.325     -512.82693    
   3389000   301.90837      377.99213      18500.736      19310.695     -258.51424    
   3390000   303.08386      378.18705      18491.728      19303.564     -352.747      
Loop time of 2.53779 on 4 procs for 10000 steps with 481 atoms

Performance: 17.023 ns/day, 1.410 hours/ns, 3940.441 timesteps/s, 1.895 Matom-step/s
99.3% CPU use with 4 MPI tasks x no OpenMP threads

MPI task timing breakdown:
Section |  min time  |  avg time  |  max time  |%varavg| %total
---------------------------------------------------------------
Pair    | 0.4571     | 0.62585    | 0.85198    |  19.2 | 24.66
Bond    | 0.79531    | 0.88491    | 0.98677    |   8.4 | 34.87
Neigh   | 0.027482   | 0.0275     | 0.027521   |   0.0 |  1.08
Comm    | 0.56398    | 0.89317    | 1.1502     |  22.3 | 35.19
Output  | 0.00030146 | 0.00033567 | 0.00042713 |   0.0 |  0.01
Modify  | 0.067794   | 0.069489   | 0.071034   |   0.5 |  2.74
Other   |            | 0.03654    |            |       |  1.44

Nlocal:         120.25 ave         131 max         110 min
Histogram: 2 0 0 0 0 0 0 0 1 1
Nghost:        4180.25 ave        4209 max        4149 min
Histogram: 1 0 1 0 0 0 0 0 1 1
Neighs:              0 ave           0 max           0 min
Histogram: 4 0 0 0 0 0 0 0 0 0

Total # of neighbors = 0
Ave neighs/atom = 0
Ave special neighs/atom = 15.567568
Neighbor list builds = 30
Dangerous builds = 0
fix             myat1 all ave/time 100 10 1000 v_zave v_zdes file simulation_data/abpot/${cpt}.dat
fix             myat1 all ave/time 100 10 1000 v_zave v_zdes file simulation_data/abpot/57.dat
run             50000
Generated 0 of 1 mixed pair_coeff terms from geometric mixing rule
Per MPI rank memory allocation (min/avg/max) = 14.61 | 14.61 | 14.61 Mbytes
   Step          Temp          E_pair         E_mol          TotEng         Press     
   3390000   303.08386      378.18705      18491.728      19303.564     -352.747      
   3391000   306.62772      378.20729      18485.654      19302.581     -240.04751    
   3392000   281.86829      373.59898      18522.339      19299.232     -588.13404    
   3393000   304.21943      376.48922      18494.082      19305.845     -375.1872     
   3394000   290.16037      381.004        18514.24       19310.402     -153.71895    
   3395000   307.13021      372.03546      18514.984      19326.458     -557.11171    
   3396000   313.95718      373.01792      18519.774      19341.999     -416.86376    
   3397000   335.49082      379.746        18489.731      19349.494     -112.96503    
   3398000   309.72281      377.94996      18529.546      19350.644     -390.23787    
   3399000   319.53928      373.55543      18509.076      19339.825     -376.16927    
   3400000   308.03834      376.02544      18505.913      19322.677     -377.21718    
   3401000   299.73743      380.39343      18487.522      19296.777     -57.539376    
   3402000   285.28675      377.24698      18503.809      19289.241     -428.70107    
   3403000   289.62962      373.68341      18507.203      19295.285     -343.39313    
   3404000   293.41837      375.96372      18503.253      19299.037     -449.20263    
   3405000   287.62544      382.97985      18513.58       19308.091      7.9180769    
   3406000   284.03274      379.51286      18535.863      19321.767     -347.69455    
   3407000   304.58016      370.30011      18519.241      19325.331     -581.646      
   3408000   293.18529      385.08938      18523.969      19328.545     -133.56497    
   3409000   324.08994      381.89465      18492.314      19337.913     -34.458612    
   3410000   301.22882      371.27815      18528.787      19331.06      -569.40675    
   3411000   299.08314      375.42035      18524.461      19327.807     -336.93472    
   3412000   295.13732      381.37795      18517.473      19321.13      -335.14766    
   3413000   292.92966      382.30737      18522.701      19324.129     -130.61524    
   3414000   291.11718      375.97902      18530.78       19323.287     -559.25121    
   3415000   285.99828      372.83145      18543.683      19325.717     -480.43596    
   3416000   302.50356      385.00985      18509.662      19327.491     -133.36706    
   3417000   309.03904      376.37509      18503.333      19321.878     -305.78541    
   3418000   292.12902      371.3942       18535.58       19324.949     -597.42067    
   3419000   297.17409      379.67142      18528.1        19332.965     -142.11784    
   3420000   301.9021       376.64541      18528.799      19337.403     -400.4784     
   3421000   301.98281      383.20262      18540.875      19356.151     -88.482884    
   3422000   309.18467      375.12895      18548.967      19366.474     -445.3934     
   3423000   305.67343      373.00258      18551.191      19361.547     -618.79767    
   3424000   312.75629      384.88267      18522.07       19354.441      76.970585    
   3425000   300.74372      379.176        18521.496      19330.973     -273.4444     
   3426000   301.25564      372.01979      18514.281      19317.334     -651.76969    
   3427000   304.63376      382.09718      18496.294      19314.258     -118.67819    
   3428000   284.80732      374.16399      18527.426      19309.09      -502.54235    
   3429000   311.7279       379.0709       18483.26       19308.348     -248.05628    
   3430000   305.53208      376.92163      18502.659      19316.732     -384.78908    
   3431000   308.8637       379.637        18500.025      19321.581     -233.34957    
   3432000   308.62848      384.00799      18506.638      19332.228     -103.92243    
   3433000   308.95901      370.71555      18543.617      19356.388     -543.27236    
   3434000   322.68212      375.62975      18534.405      19371.724     -384.39295    
   3435000   322.76062      385.30816      18529.655      19376.766     -49.953609    
   3436000   320.44519      372.74194      18537.653      19368.884     -316.51612    
   3437000   315.1677       373.98415      18521.086      19346.008     -509.53503    
   3438000   290.68028      381.25917      18524.934      19322.095     -137.40368    
   3439000   294.74308      379.07765      18522.803      19323.596     -214.10946    
   3440000   308.28436      380.01852      18500.327      19321.435     -303.54626    
Loop time of 12.7954 on 4 procs for 50000 steps with 481 atoms

Performance: 16.881 ns/day, 1.422 hours/ns, 3907.662 timesteps/s, 1.880 Matom-step/s
99.0% CPU use with 4 MPI tasks x no OpenMP threads

MPI task timing breakdown:
Section |  min time  |  avg time  |  max time  |%varavg| %total
---------------------------------------------------------------
Pair    | 2.2884     | 3.153      | 4.292      |  43.3 | 24.64
Bond    | 3.9897     | 4.4315     | 4.9255     |  17.8 | 34.63
Neigh   | 0.14067    | 0.14072    | 0.14076    |   0.0 |  1.10
Comm    | 2.878      | 4.5165     | 5.8181     |  49.7 | 35.30
Output  | 0.0018153  | 0.0027349  | 0.0031065  |   1.0 |  0.02
Modify  | 0.35926    | 0.36628    | 0.37418    |   1.0 |  2.86
Other   |            | 0.1847     |            |       |  1.44

Nlocal:         120.25 ave         125 max         116 min
Histogram: 2 0 0 0 0 0 0 0 1 1
Nghost:        4183.25 ave        4205 max        4161 min
Histogram: 1 1 0 0 0 0 0 0 1 1
Neighs:              0 ave           0 max           0 min
Histogram: 4 0 0 0 0 0 0 0 0 0

Total # of neighbors = 0
Ave neighs/atom = 0
Ave special neighs/atom = 15.567568
Neighbor list builds = 152
Dangerous builds = 0
unfix           myat1
next            cpt
jump            SELF loop
variable        zdes equal  -15+0.30*(${cpt}-1)
variable        zdes equal  -15+0.30*(58-1)
fix             mytth2 H2 spring tether ${k1} 5 5 ${zdes} 0
fix             mytth2 H2 spring tether 0.5 5 5 ${zdes} 0
fix             mytth2 H2 spring tether 0.5 5 5 2.1 0
run             10000
Generated 0 of 1 mixed pair_coeff terms from geometric mixing rule
Per MPI rank memory allocation (min/avg/max) = 14.61 | 14.61 | 14.61 Mbytes
   Step          Temp          E_pair         E_mol          TotEng         Press     
   3440000   308.28436      380.01852      18500.327      19321.435     -303.54626    
   3441000   290.59598      372.36189      18527.405      19315.548     -388.50891    
   3442000   282.10657      377.26315      18530.546      19311.444     -382.80302    
   3443000   312.18778      385.23615      18483.506      19315.417     -43.628178    
   3444000   288.09844      375.93523      18530.815      19318.958     -448.71554    
   3445000   306.79275      374.22486      18508.814      19321.995     -451.71587    
   3446000   311.7652       381.0796       18504.81       19331.96      -354.85005    
   3447000   315.90082      379.88697      18510.362      19342.236     -190.80895    
   3448000   305.68333      377.68074      18531.285      19346.334     -287.31512    
   3449000   314.32356      372.07088      18533.854      19355.655     -511.0322     
   3450000   309.48126      381.83306      18520.887      19345.522     -240.42381    
Loop time of 2.62701 on 4 procs for 10000 steps with 481 atoms

Performance: 16.445 ns/day, 1.459 hours/ns, 3806.607 timesteps/s, 1.831 Matom-step/s
98.4% CPU use with 4 MPI tasks x no OpenMP threads

MPI task timing breakdown:
Section |  min time  |  avg time  |  max time  |%varavg| %total
---------------------------------------------------------------
Pair    | 0.47526    | 0.63743    | 0.87068    |  19.6 | 24.26
Bond    | 0.80644    | 0.89567    | 0.99523    |   8.2 | 34.09
Neigh   | 0.028166   | 0.028196   | 0.028218   |   0.0 |  1.07
Comm    | 0.61424    | 0.9471     | 1.1982     |  21.7 | 36.05
Output  | 0.00032283 | 0.00036256 | 0.00046233 |   0.0 |  0.01
Modify  | 0.079004   | 0.079419   | 0.079892   |   0.1 |  3.02
Other   |            | 0.03884    |            |       |  1.48

Nlocal:         120.25 ave         129 max         111 min
Histogram: 2 0 0 0 0 0 0 0 0 2
Nghost:         4164.5 ave        4194 max        4137 min
Histogram: 1 1 0 0 0 0 0 1 0 1
Neighs:              0 ave           0 max           0 min
Histogram: 4 0 0 0 0 0 0 0 0 0

Total # of neighbors = 0
Ave neighs/atom = 0
Ave special neighs/atom = 15.567568
Neighbor list builds = 30
Dangerous builds = 0
fix             myat1 all ave/time 100 10 1000 v_zave v_zdes file simulation_data/abpot/${cpt}.dat
fix             myat1 all ave/time 100 10 1000 v_zave v_zdes file simulation_data/abpot/58.dat
run             50000
Generated 0 of 1 mixed pair_coeff terms from geometric mixing rule
Per MPI rank memory allocation (min/avg/max) = 14.61 | 14.61 | 14.61 Mbytes
   Step          Temp          E_pair         E_mol          TotEng         Press     
   3450000   309.48126      381.83306      18520.887      19345.522     -240.42381    
   3451000   307.96603      384.41256      18502.1        19327.147     -185.03921    
   3452000   290.73499      379.95873      18517.073      19313.012     -428.47795    
   3453000   295.83347      374.21347      18505.543      19303.031     -466.14396    
   3454000   294.17903      384.05156      18490.153      19295.113     -85.361647    
   3455000   302.04913      380.1086       18482.187      19294.464     -223.46662    
   3456000   298.69544      372.56103      18502.443      19302.375     -476.51356    
   3457000   307.42672      375.93912      18503.194      19318.996     -433.22413    
   3458000   303.70029      376.41158      18520.272      19331.214     -302.20613    
   3459000   322.68803      377.8168       18496.459      19335.974     -285.50702    
   3460000   318.38681      373.43644      18514.502      19343.483     -453.19194    
   3461000   307.02466      376.95496      18519.979      19336.221     -520.66059    
   3462000   309.54243      381.09158      18508.724      19332.705     -18.229258    
   3463000   311.29259      373.14306      18510.064      19328.601     -468.29559    
   3464000   294.71143      375.30041      18528.063      19325.034     -460.10984    
   3465000   298.16321      376.3262       18519.213      19322.148     -424.81826    
   3466000   301.67517      379.05533      18497.786      19308.475     -173.65672    
   3467000   295.40389      377.77344      18507.455      19307.889     -394.71514    
   3468000   287.23529      370.15187      18512.507      19293.632     -523.40804    
   3469000   288.24702      382.37941      18497.043      19291.843     -254.762      
   3470000   291.57896      379.82499      18505.674      19302.687     -224.4625     
   3471000   287.94322      372.07324      18532.516      19316.575     -462.20112    
   3472000   308.18124      375.87093      18510.982      19327.795     -427.63789    
   3473000   303.33256      380.17462      18526.642      19340.821     -318.38309    
   3474000   310.09843      377.39751      18529.403      19350.486     -344.35562    
   3475000   290.72159      374.30867      18556.136      19346.406     -465.43079    
   3476000   313.59828      373.35154      18518.202      19340.246     -462.03299    
   3477000   309.55845      381.84432      18494.912      19319.669     -209.3886     
   3478000   297.74967      378.74406      18499.901      19304.662     -273.62187    
   3479000   302.19065      370.28621      18499.261      19301.918     -511.62373    
   3480000   298.33383      375.05108      18498.392      19300.296     -342.41468    
   3481000   295.95753      377.46779      18499.204      19300.124     -465.17751    
   3482000   292.40748      379.04721      18515.036      19312.457     -181.94671    
   3483000   303.58309      367.03657      18522.123      19323.523     -753.78067    
   3484000   287.64386      376.88396      18534.048      19322.49      -325.86867    
   3485000   300.35083      381.73461      18517.906      19329.379     -319.29438    
   3486000   304.07057      377.58553      18523.509      19336.155     -336.98638    
   3487000   316.24667      372.63521      18522.542      19347.659     -534.13082    
   3488000   309.6455       374.67735      18530.993      19348.708     -438.03322    
   3489000   303.95222      380.36989      18538.69       19353.951     -310.45289    
   3490000   313.65473      373.86082      18529.249      19351.884     -562.46817    
   3491000   329.17904      369.87779      18500.852      19341.715     -482.77181    
   3492000   305.13752      383.98139      18502.247      19322.816     -98.67591     
   3493000   291.17723      377.34319      18507.917      19301.873     -406.20959    
   3494000   274.67821      378.95127      18525.531      19297.488     -360.05386    
   3495000   293.21191      374.1567       18504.721      19298.402     -468.61289    
   3496000   297.78376      378.55311      18505.342      19309.961     -315.15865    
   3497000   299.35934      379.53458      18506.324      19314.178     -222.23956    
   3498000   311.4299       371.19549      18520.982      19337.768     -543.38018    
   3499000   307.75932      380.21235      18530.575      19351.126     -163.85757    
   3500000   325.49286      377.43973      18508.326      19351.477     -277.80588    
Loop time of 12.7274 on 4 procs for 50000 steps with 481 atoms

Performance: 16.971 ns/day, 1.414 hours/ns, 3928.544 timesteps/s, 1.890 Matom-step/s
99.1% CPU use with 4 MPI tasks x no OpenMP threads

MPI task timing breakdown:
Section |  min time  |  avg time  |  max time  |%varavg| %total
---------------------------------------------------------------
Pair    | 2.2402     | 3.1383     | 4.2703     |  43.4 | 24.66
Bond    | 3.9911     | 4.4328     | 4.9309     |  17.8 | 34.83
Neigh   | 0.13795    | 0.13811    | 0.13826    |   0.0 |  1.09
Comm    | 2.8515     | 4.4816     | 5.82       |  50.2 | 35.21
Output  | 0.0025611  | 0.0033382  | 0.0036375  |   0.8 |  0.03
Modify  | 0.34872    | 0.35131    | 0.3552     |   0.4 |  2.76
Other   |            | 0.1819     |            |       |  1.43

Nlocal:         120.25 ave         127 max         113 min
Histogram: 1 1 0 0 0 0 0 0 0 2
Nghost:         4164.5 ave        4192 max        4137 min
Histogram: 1 0 1 0 0 0 0 1 0 1
Neighs:              0 ave           0 max           0 min
Histogram: 4 0 0 0 0 0 0 0 0 0

Total # of neighbors = 0
Ave neighs/atom = 0
Ave special neighs/atom = 15.567568
Neighbor list builds = 152
Dangerous builds = 0
unfix           myat1
next            cpt
jump            SELF loop
variable        zdes equal  -15+0.30*(${cpt}-1)
variable        zdes equal  -15+0.30*(59-1)
fix             mytth2 H2 spring tether ${k1} 5 5 ${zdes} 0
fix             mytth2 H2 spring tether 0.5 5 5 ${zdes} 0
fix             mytth2 H2 spring tether 0.5 5 5 2.4 0
run             10000
Generated 0 of 1 mixed pair_coeff terms from geometric mixing rule
Per MPI rank memory allocation (min/avg/max) = 14.61 | 14.61 | 14.61 Mbytes
   Step          Temp          E_pair         E_mol          TotEng         Press     
   3500000   325.49286      377.43973      18508.326      19351.477     -277.80588    
   3501000   318.8232       379.13439      18520.329      19355.632     -320.62038    
   3502000   298.63873      377.24042      18539.393      19343.922     -425.70426    
   3503000   311.66983      377.62773      18510.99       19334.551     -293.91033    
   3504000   298.03988      382.18843      18509.516      19318.136     -224.5394     
   3505000   294.49584      372.25111      18522.7        19316.312     -473.06128    
   3506000   293.918        374.19885      18518.269      19313.003     -463.36764    
   3507000   311.84501      377.60355      18487.943      19311.731     -290.38535    
   3508000   292.79624      380.36615      18518.113      19317.409     -224.65392    
   3509000   300.11677      376.92739      18514.593      19320.924     -327.77306    
   3510000   308.03275      372.81329      18538.088      19351.631     -543.83234    
Loop time of 2.52335 on 4 procs for 10000 steps with 481 atoms

Performance: 17.120 ns/day, 1.402 hours/ns, 3962.983 timesteps/s, 1.906 Matom-step/s
99.5% CPU use with 4 MPI tasks x no OpenMP threads

MPI task timing breakdown:
Section |  min time  |  avg time  |  max time  |%varavg| %total
---------------------------------------------------------------
Pair    | 0.44371    | 0.62409    | 0.85146    |  19.5 | 24.73
Bond    | 0.78892    | 0.88154    | 0.98513    |   8.4 | 34.94
Neigh   | 0.027149   | 0.027173   | 0.0272     |   0.0 |  1.08
Comm    | 0.55684    | 0.88636    | 1.1609     |  22.9 | 35.13
Output  | 0.00032392 | 0.00037377 | 0.00048092 |   0.0 |  0.01
Modify  | 0.066471   | 0.068313   | 0.069985   |   0.6 |  2.71
Other   |            | 0.0355     |            |       |  1.41

Nlocal:         120.25 ave         131 max         110 min
Histogram: 2 0 0 0 0 0 0 0 0 2
Nghost:        4171.25 ave        4203 max        4139 min
Histogram: 1 0 1 0 0 0 0 1 0 1
Neighs:              0 ave           0 max           0 min
Histogram: 4 0 0 0 0 0 0 0 0 0

Total # of neighbors = 0
Ave neighs/atom = 0
Ave special neighs/atom = 15.567568
Neighbor list builds = 30
Dangerous builds = 0
fix             myat1 all ave/time 100 10 1000 v_zave v_zdes file simulation_data/abpot/${cpt}.dat
fix             myat1 all ave/time 100 10 1000 v_zave v_zdes file simulation_data/abpot/59.dat
run             50000
Generated 0 of 1 mixed pair_coeff terms from geometric mixing rule
Per MPI rank memory allocation (min/avg/max) = 14.61 | 14.61 | 14.61 Mbytes
   Step          Temp          E_pair         E_mol          TotEng         Press     
   3510000   308.03275      372.81329      18538.088      19351.631     -543.83234    
   3511000   324.06271      382.04432      18516.628      19362.337     -200.11797    
   3512000   331.14211      384.17411      18510.911      19368.88      -107.87357    
   3513000   301.62963      371.24902      18569.205      19372.023     -655.7628     
   3514000   284.43874      370.95972      18574.35       19352.281     -641.76234    
   3515000   305.43603      377.6162       18527.591      19342.222     -235.46636    
   3516000   289.51391      383.10099      18528.457      19325.791     -287.16225    
   3517000   293.58441      376.83034      18519.331      19316.218     -251.63377    
   3518000   291.80347      370.79022      18533.713      19322.012     -561.53105    
   3519000   302.0629       381.55581      18508.247      19321.991     -111.27697    
   3520000   297.15618      381.67034      18515.929      19322.768     -238.46049    
   3521000   296.13449      374.28629      18533.14       19331.132     -515.83825    
   3522000   292.57687      374.83335      18546.218      19339.667     -511.61578    
   3523000   322.45762      381.43729      18510.314      19353.121     -266.93218    
   3524000   335.18764      380.53518      18513.392      19373.51      -82.109943    
   3525000   329.13106      375.47785      18529.481      19375.876     -470.85426    
   3526000   312.74767      373.16427      18542.973      19363.614     -484.14122    
   3527000   318.99666      380.67308      18507.56       19344.65      -212.02027    
   3528000   296.54253      377.576        18526.956      19328.822     -208.23208    
   3529000   290.77331      372.59379      18531.778      19320.407     -558.57548    
   3530000   310.67058      376.92185      18492.354      19313.78      -426.85954    
   3531000   309.95164      383.16431      18485.667      19312.307      23.878514    
   3532000   294.32787      377.55941      18514.068      19312.748     -353.31806    
   3533000   304.35809      371.07758      18515.207      19321.756     -575.37722    
   3534000   297.74393      379.22358      18517.843      19323.075     -241.24307    
   3535000   316.4492       383.61455      18496.394      19332.781     -27.909377    
   3536000   304.88736      369.8588       18539.573      19345.661     -676.79352    
   3537000   312.75594      377.9607       18530.336      19355.785     -431.63121    
   3538000   319.0072       379.30674      18524.488      19360.226     -295.45666    
   3539000   310.55451      380.07749      18529.664      19354.08      -262.10455    
   3540000   298.0191       377.01758      18532.02       19335.44      -368.67479    
   3541000   295.83803      371.83853      18522.649      19317.769     -538.19382    
   3542000   298.31246      381.92979      18495.892      19304.644     -251.3638     
   3543000   285.44555      381.6359       18506.409      19296.457     -183.89759    
   3544000   300.28252      367.47222      18509.342      19306.455     -743.45539    
   3545000   304.93323      377.01474      18501.79       19315.1       -273.95874    
   3546000   293.52578      380.43057      18521.848      19322.252     -300.67984    
   3547000   313.71616      376.61361      18514.42       19339.895     -368.09929    
   3548000   293.91558      380.48558      18541.089      19342.106     -329.29558    
   3549000   327.79352      375.99771      18513.861      19358.863     -467.37776    
   3550000   325.31958      379.34235      18533.53       19378.336     -76.065979    
   3551000   326.90266      378.6785       18554.066      19400.473     -208.63578    
   3552000   329.78945      372.15789      18556.242      19400.259     -597.84016    
   3553000   307.01592      381.26527      18552.853      19373.393     -203.38245    
   3554000   314.29235      378.43417      18517.123      19345.243     -252.09961    
   3555000   303.06877      373.27239      18525.816      19332.715     -429.16063    
   3556000   293.29869      377.66827      18527.036      19324.353     -414.77353    
   3557000   293.68399      382.33461      18509.621      19312.156     -169.18593    
   3558000   288.46366      377.6286       18523.609      19313.968     -399.78383    
   3559000   292.18143      371.24958      18512.084      19301.383     -620.48639    
   3560000   295.5161       376.9827       18503.355      19303.159     -404.45706    
Loop time of 12.6755 on 4 procs for 50000 steps with 481 atoms

Performance: 17.041 ns/day, 1.408 hours/ns, 3944.609 timesteps/s, 1.897 Matom-step/s
99.2% CPU use with 4 MPI tasks x no OpenMP threads

MPI task timing breakdown:
Section |  min time  |  avg time  |  max time  |%varavg| %total
---------------------------------------------------------------
Pair    | 2.1531     | 3.1362     | 4.2615     |  44.1 | 24.74
Bond    | 3.977      | 4.4164     | 4.9203     |  17.7 | 34.84
Neigh   | 0.13416    | 0.13422    | 0.13427    |   0.0 |  1.06
Comm    | 2.829      | 4.4574     | 5.8848     |  51.5 | 35.17
Output  | 0.0017079  | 0.0025377  | 0.0028364  |   1.0 |  0.02
Modify  | 0.34047    | 0.34657    | 0.3516     |   0.7 |  2.73
Other   |            | 0.1822     |            |       |  1.44

Nlocal:         120.25 ave         125 max         115 min
Histogram: 1 1 0 0 0 0 0 0 0 2
Nghost:        4148.75 ave        4172 max        4126 min
Histogram: 1 1 0 0 0 0 0 0 1 1
Neighs:              0 ave           0 max           0 min
Histogram: 4 0 0 0 0 0 0 0 0 0

Total # of neighbors = 0
Ave neighs/atom = 0
Ave special neighs/atom = 15.567568
Neighbor list builds = 147
Dangerous builds = 0
unfix           myat1
next            cpt
jump            SELF loop
variable        zdes equal  -15+0.30*(${cpt}-1)
variable        zdes equal  -15+0.30*(60-1)
fix             mytth2 H2 spring tether ${k1} 5 5 ${zdes} 0
fix             mytth2 H2 spring tether 0.5 5 5 ${zdes} 0
fix             mytth2 H2 spring tether 0.5 5 5 2.7 0
run             10000
Generated 0 of 1 mixed pair_coeff terms from geometric mixing rule
Per MPI rank memory allocation (min/avg/max) = 14.61 | 14.61 | 14.61 Mbytes
   Step          Temp          E_pair         E_mol          TotEng         Press     
   3560000   295.5161       376.9827       18503.355      19303.159     -404.45706    
   3561000   296.59074      383.67617      18496.179      19304.214     -100.97266    
   3562000   306.64838      374.93006      18505.796      19319.475     -379.9765     
   3563000   314.55835      369.85715      18511.926      19331.85      -506.25371    
   3564000   309.07188      381.32451      18523.287      19346.828     -261.26709    
   3565000   299.20861      388.53599      18536.322      19352.962     -42.668394    
   3566000   304.04324      375.73579      18550.82       19361.577     -290.54128    
   3567000   334.57504      374.00035      18495.805      19348.512     -517.45406    
   3568000   311.87439      378.89883      18497.406      19322.531     -240.74671    
   3569000   288.33686      385.12989      18506.648      19304.327     -94.420407    
   3570000   283.85166      372.54727      18523.193      19301.873     -460.67473    
Loop time of 2.57782 on 4 procs for 10000 steps with 481 atoms

Performance: 16.758 ns/day, 1.432 hours/ns, 3879.239 timesteps/s, 1.866 Matom-step/s
99.0% CPU use with 4 MPI tasks x no OpenMP threads

MPI task timing breakdown:
Section |  min time  |  avg time  |  max time  |%varavg| %total
---------------------------------------------------------------
Pair    | 0.40098    | 0.63563    | 0.86416    |  20.9 | 24.66
Bond    | 0.80342    | 0.89115    | 0.99119    |   7.9 | 34.57
Neigh   | 0.025019   | 0.025142   | 0.025261   |   0.1 |  0.98
Comm    | 0.58691    | 0.91662    | 1.2377     |  24.0 | 35.56
Output  | 0.00029017 | 0.00032051 | 0.00040063 |   0.0 |  0.01
Modify  | 0.070386   | 0.071866   | 0.073335   |   0.4 |  2.79
Other   |            | 0.03709    |            |       |  1.44

Nlocal:         120.25 ave         129 max         112 min
Histogram: 1 0 1 0 0 0 0 1 0 1
Nghost:        4157.75 ave        4179 max        4135 min
Histogram: 2 0 0 0 0 0 0 0 0 2
Neighs:              0 ave           0 max           0 min
Histogram: 4 0 0 0 0 0 0 0 0 0

Total # of neighbors = 0
Ave neighs/atom = 0
Ave special neighs/atom = 15.567568
Neighbor list builds = 27
Dangerous builds = 0
fix             myat1 all ave/time 100 10 1000 v_zave v_zdes file simulation_data/abpot/${cpt}.dat
fix             myat1 all ave/time 100 10 1000 v_zave v_zdes file simulation_data/abpot/60.dat
run             50000
Generated 0 of 1 mixed pair_coeff terms from geometric mixing rule
Per MPI rank memory allocation (min/avg/max) = 14.61 | 14.61 | 14.61 Mbytes
   Step          Temp          E_pair         E_mol          TotEng         Press     
   3570000   283.85166      372.54727      18523.193      19301.873     -460.67473    
   3571000   312.42701      371.84858      18485.459      19304.325     -533.46934    
   3572000   294.07887      384.59247      18506.03       19311.387     -38.031834    
   3573000   289.24301      377.36171      18526.302      19317.51      -409.60085    
   3574000   297.74798      376.8951       18527.689      19330.599     -359.48141    
   3575000   294.33464      372.3466       18548.173      19341.65      -440.13312    
   3576000   315.55376      382.83229      18511.376      19345.699     -135.76178    
   3577000   306.44049      374.65875      18537.432      19350.542     -454.88615    
   3578000   320.61796      375.19018      18521.137      19355.064     -365.09462    
   3579000   297.93371      377.24353      18523.658      19327.181     -302.70855    
   3580000   295.69376      377.02767      18505.937      19306.04      -331.71004    
   3581000   303.96671      373.47026      18490.798      19299.181     -294.63974    
   3582000   278.44468      374.9207       18515.488      19288.804     -422.2663     
   3583000   294.60658      383.57041      18490.388      19295.478     -186.56688    
   3584000   294.10453      370.78969      18515.326      19306.917     -569.17687    
   3585000   310.3163       373.24136      18503.468      19320.707     -334.1597     
   3586000   304.23679      379.26496      18518.183      19332.746     -367.35569    
   3587000   309.87532      379.18179      18520.709      19343.257     -191.9052     
   3588000   307.52825      379.05737      18523.356      19342.422     -271.32635    
   3589000   309.96238      375.30065      18518.865      19337.657     -415.31951    
   3590000   295.82324      376.97136      18530.883      19331.115     -427.6611     
   3591000   302.23509      381.2186       18510.164      19323.817     -212.09713    
   3592000   295.56377      380.05201      18524.356      19327.297     -211.56979    
   3593000   305.1639       370.67656      18515.908      19323.21      -582.37175    
   3594000   303.89919      378.12112      18510.585      19323.522     -330.52034    
   3595000   305.82614      378.29707      18507.444      19323.313     -283.48692    
   3596000   299.26719      379.07614      18516.321      19323.585     -375.20626    
   3597000   300.2987       373.75647      18520.441      19323.861     -465.8385     
   3598000   306.60565      375.01939      18499.069      19312.776     -367.52263    
   3599000   286.56987      381.82367      18512.852      19304.697     -140.2413     
   3600000   294.58727      379.93974      18498.057      19299.489     -160.11125    
   3601000   287.76069      373.12713      18505.954      19290.806     -539.88413    
   3602000   284.2925       378.47529      18514.064      19299.302     -291.73424    
   3603000   294.07667      377.3937       18509.442      19307.597     -379.75428    
   3604000   305.7056       379.1674       18509.22       19325.788     -273.61809    
   3605000   307.51766      373.73112      18531.765      19345.489     -422.64707    
   3606000   313.98671      376.71247      18525.39       19351.351     -352.33708    
   3607000   325.53728      377.5548       18503.226      19346.556     -340.04495    
   3608000   285.71065      377.48398      18549.658      19335.934     -378.01189    
   3609000   298.55881      380.08683      18528.049      19335.31      -342.39951    
   3610000   299.21379      374.18021      18518.576      19320.868     -461.01814    
   3611000   270.3614       383.10739      18543.982      19313.919     -220.08936    
   3612000   289.22723      375.28203      18524.401      19313.506     -367.53293    
   3613000   286.89803      376.07012      18527.94       19314.501     -471.84521    
   3614000   281.96944      374.65142      18536.352      19314.442     -408.02594    
   3615000   294.00809      377.11367      18521.61       19319.387     -409.12219    
   3616000   287.51702      375.73496      18531.337      19318.448     -436.03498    
   3617000   309.39445      379.11545      18503.282      19325.075     -186.357      
   3618000   304.97745      378.32302      18515.703      19330.384     -442.07374    
   3619000   300.44624      379.72872      18528.563      19338.167     -168.75996    
   3620000   302.3281       381.50731      18530.282      19344.357     -370.46483    
Loop time of 12.5606 on 4 procs for 50000 steps with 481 atoms

Performance: 17.197 ns/day, 1.396 hours/ns, 3980.704 timesteps/s, 1.915 Matom-step/s
99.5% CPU use with 4 MPI tasks x no OpenMP threads

MPI task timing breakdown:
Section |  min time  |  avg time  |  max time  |%varavg| %total
---------------------------------------------------------------
Pair    | 1.9668     | 3.1205     | 4.2256     |  46.0 | 24.84
Bond    | 3.953      | 4.4009     | 4.8977     |  17.9 | 35.04
Neigh   | 0.12829    | 0.12832    | 0.12835    |   0.0 |  1.02
Comm    | 2.7904     | 4.3909     | 5.9929     |  54.0 | 34.96
Output  | 0.0016541  | 0.0024491  | 0.0027313  |   0.9 |  0.02
Modify  | 0.33659    | 0.33979    | 0.34199    |   0.4 |  2.71
Other   |            | 0.1778     |            |       |  1.42

Nlocal:         120.25 ave         127 max         114 min
Histogram: 1 1 0 0 0 0 0 1 0 1
Nghost:        4171.25 ave        4199 max        4141 min
Histogram: 1 0 0 1 0 0 0 1 0 1
Neighs:              0 ave           0 max           0 min
Histogram: 4 0 0 0 0 0 0 0 0 0

Total # of neighbors = 0
Ave neighs/atom = 0
Ave special neighs/atom = 15.567568
Neighbor list builds = 138
Dangerous builds = 0
unfix           myat1
next            cpt
jump            SELF loop
variable        zdes equal  -15+0.30*(${cpt}-1)
variable        zdes equal  -15+0.30*(61-1)
fix             mytth2 H2 spring tether ${k1} 5 5 ${zdes} 0
fix             mytth2 H2 spring tether 0.5 5 5 ${zdes} 0
fix             mytth2 H2 spring tether 0.5 5 5 3 0
run             10000
Generated 0 of 1 mixed pair_coeff terms from geometric mixing rule
Per MPI rank memory allocation (min/avg/max) = 14.61 | 14.61 | 14.61 Mbytes
   Step          Temp          E_pair         E_mol          TotEng         Press     
   3620000   302.3281       381.50731      18530.282      19344.357     -370.46483    
   3621000   311.97339      377.33066      18524.137      19347.836     -382.83029    
   3622000   300.05817      380.7668       18532.971      19343.057     -274.14417    
   3623000   289.09334      380.1043       18547.479      19341.215     -378.18416    
   3624000   299.19925      376.96121      18520.805      19325.857     -387.24162    
   3625000   294.77237      380.87236      18509.466      19312.096     -240.7944     
   3626000   286.56541      381.36307      18509.926      19301.303     -337.59813    
   3627000   288.25815      381.4742       18504.837      19298.748     -273.76202    
   3628000   294.69313      378.0993       18499.809      19299.552     -403.15836    
   3629000   306.07673      376.82403      18504.278      19319.034     -234.56628    
   3630000   298.23899      379.18173      18534.129      19340.027     -413.75761    
Loop time of 2.51164 on 4 procs for 10000 steps with 481 atoms

Performance: 17.200 ns/day, 1.395 hours/ns, 3981.457 timesteps/s, 1.915 Matom-step/s
99.4% CPU use with 4 MPI tasks x no OpenMP threads

MPI task timing breakdown:
Section |  min time  |  avg time  |  max time  |%varavg| %total
---------------------------------------------------------------
Pair    | 0.38725    | 0.62784    | 0.84506    |  20.7 | 25.00
Bond    | 0.79082    | 0.88045    | 0.97865    |   8.0 | 35.05
Neigh   | 0.024554   | 0.024573   | 0.024592   |   0.0 |  0.98
Comm    | 0.56094    | 0.87557    | 1.2065     |  24.4 | 34.86
Output  | 0.00027267 | 0.0003134  | 0.00039413 |   0.0 |  0.01
Modify  | 0.066059   | 0.0671     | 0.068134   |   0.3 |  2.67
Other   |            | 0.0358     |            |       |  1.43

Nlocal:         120.25 ave         128 max         113 min
Histogram: 1 0 1 0 0 0 1 0 0 1
Nghost:        4168.25 ave        4194 max        4147 min
Histogram: 2 0 0 0 0 0 0 1 0 1
Neighs:              0 ave           0 max           0 min
Histogram: 4 0 0 0 0 0 0 0 0 0

Total # of neighbors = 0
Ave neighs/atom = 0
Ave special neighs/atom = 15.567568
Neighbor list builds = 27
Dangerous builds = 0
fix             myat1 all ave/time 100 10 1000 v_zave v_zdes file simulation_data/abpot/${cpt}.dat
fix             myat1 all ave/time 100 10 1000 v_zave v_zdes file simulation_data/abpot/61.dat
run             50000
Generated 0 of 1 mixed pair_coeff terms from geometric mixing rule
Per MPI rank memory allocation (min/avg/max) = 14.61 | 14.61 | 14.61 Mbytes
   Step          Temp          E_pair         E_mol          TotEng         Press     
   3630000   298.23899      379.18173      18534.129      19340.027     -413.75761    
   3631000   301.63171      379.45369      18544.057      19355.082     -350.62364    
   3632000   309.70034      379.19878      18537.47       19359.785     -470.00125    
   3633000   305.36468      377.90572      18541.797      19356.615     -398.66484    
   3634000   289.8571       384.94366      18542.288      19341.956     -116.38363    
   3635000   298.8451       379.28543      18527.913      19334.782     -320.31073    
   3636000   310.65243      375.98709      18502.482      19322.947     -329.21193    
   3637000   285.66417      380.69618      18524.978      19314.399     -423.26404    
   3638000   292.29563      379.08895      18511.205      19308.507     -296.4364     
   3639000   292.65507      377.95529      18516.962      19313.645     -498.89408    
   3640000   280.38123      375.29555      18545.44       19321.902     -424.53597    
   3641000   285.02424      381.4849       18540.605      19329.899     -305.66857    
   3642000   313.34222      379.78122      18528.314      19356.421     -365.40295    
   3643000   321.17732      380.85574      18526.213      19366.605     -247.1452     
   3644000   317.31492      378.70639      18527.842      19360.559     -282.52098    
   3645000   302.66983      382.18717      18542.437      19357.681     -272.9349     
   3646000   296.84585      383.32351      18528.715      19336.763     -332.76912    
   3647000   298.30756      378.54339      18511.627      19316.985     -395.68284    
   3648000   288.29315      379.50481      18519.418      19311.41      -337.18845    
   3649000   297.66475      374.0411       18512.224      19312.16      -458.33477    
   3650000   294.72142      384.84078      18504.715      19311.24      -133.93668    
   3651000   290.46877      378.19836      18524.287      19318.084     -561.61904    
   3652000   300.11467      376.97853      18524.686      19331.065     -369.03932    
   3653000   309.17922      377.36164      18511.796      19331.528     -321.99083    
   3654000   296.28391      377.25116      18550.859      19352.03      -461.83212    
   3655000   312.48035      379.52127      18550.461      19377.076     -340.60194    
   3656000   318.06341      381.74835      18555.088      19391.918     -126.95974    
   3657000   320.176        375.72496      18559.29       19393.12      -522.21083    
   3658000   318.71168      385.03405      18535.358      19376.401     -13.791235    
   3659000   314.77452      377.40003      18537.271      19365.047     -463.37439    
   3660000   314.28519      377.65753      18522.587      19349.92      -469.07941    
   3661000   290.25624      380.06883      18544.453      19339.817     -379.17982    
   3662000   314.93258      377.44298      18503.034      19331.079     -305.33814    
   3663000   296.77191      372.78641      18522.023      19319.427     -526.27861    
   3664000   307.11145      381.32787      18496.894      19317.634     -225.10689    
   3665000   292.84073      380.637        18509.328      19308.958     -377.04295    
   3666000   306.35228      376.93649      18492.936      19308.198     -301.83415    
   3667000   281.56407      373.46274      18528.748      19305.07      -503.94018    
   3668000   285.34828      379.62972      18521.482      19309.385     -360.15697    
   3669000   296.34558      383.51279      18525.474      19332.994     -235.75186    
   3670000   304.04776      372.75568      18539.448      19347.232     -603.91383    
   3671000   296.97779      378.65826      18548.276      19351.847     -457.51513    
   3672000   317.84105      380.80669      18520.243      19355.813     -148.29958    
   3673000   317.41932      381.91497      18505.654      19341.729     -134.91527    
   3674000   297.27516      375.18727      18517.504      19318.029     -541.00183    
   3675000   295.13224      373.32662      18513.383      19308.981     -492.07089    
   3676000   295.46905      379.23779      18503.393      19305.384     -273.1218     
   3677000   303.02424      381.6985       18488.686      19303.948     -176.50928    
   3678000   305.67181      373.89786      18498.408      19309.658     -483.44348    
   3679000   293.1199       377.07245      18518.54       19315.006     -420.68694    
   3680000   291.6431       377.94937      18523.162      19318.391     -376.48335    
Loop time of 12.7158 on 4 procs for 50000 steps with 481 atoms

Performance: 16.987 ns/day, 1.413 hours/ns, 3932.117 timesteps/s, 1.891 Matom-step/s
98.9% CPU use with 4 MPI tasks x no OpenMP threads

MPI task timing breakdown:
Section |  min time  |  avg time  |  max time  |%varavg| %total
---------------------------------------------------------------
Pair    | 1.933      | 3.1426     | 4.2512     |  47.0 | 24.71
Bond    | 3.9428     | 4.415      | 4.925      |  18.5 | 34.72
Neigh   | 0.12217    | 0.1222     | 0.12223    |   0.0 |  0.96
Comm    | 2.8738     | 4.4904     | 6.1732     |  55.1 | 35.31
Output  | 0.0017613  | 0.00255    | 0.0029046  |   0.9 |  0.02
Modify  | 0.35582    | 0.35928    | 0.36187    |   0.4 |  2.83
Other   |            | 0.1837     |            |       |  1.44

Nlocal:         120.25 ave         124 max         116 min
Histogram: 1 1 0 0 0 0 0 0 0 2
Nghost:        4183.25 ave        4207 max        4160 min
Histogram: 1 0 1 0 0 0 0 1 0 1
Neighs:              0 ave           0 max           0 min
Histogram: 4 0 0 0 0 0 0 0 0 0

Total # of neighbors = 0
Ave neighs/atom = 0
Ave special neighs/atom = 15.567568
Neighbor list builds = 133
Dangerous builds = 0
unfix           myat1
next            cpt
jump            SELF loop
variable        zdes equal  -15+0.30*(${cpt}-1)
variable        zdes equal  -15+0.30*(62-1)
fix             mytth2 H2 spring tether ${k1} 5 5 ${zdes} 0
fix             mytth2 H2 spring tether 0.5 5 5 ${zdes} 0
fix             mytth2 H2 spring tether 0.5 5 5 3.3 0
run             10000
Generated 0 of 1 mixed pair_coeff terms from geometric mixing rule
Per MPI rank memory allocation (min/avg/max) = 14.61 | 14.61 | 14.61 Mbytes
   Step          Temp          E_pair         E_mol          TotEng         Press     
   3680000   291.6431       377.94937      18523.162      19318.391     -376.48335    
   3681000   288.90784      377.46511      18535.478      19326.309     -461.35977    
   3682000   302.36246      377.48639      18529.024      19339.127     -315.71254    
   3683000   311.40651      375.3571       18518.97       19339.884     -361.87115    
   3684000   292.71616      377.82749      18537.692      19334.334     -376.2844     
   3685000   290.61765      376.93495      18543.038      19335.785     -401.23639    
   3686000   293.03004      378.63841      18522.295      19320.198     -554.73985    
   3687000   309.77205      379.79694      18483.316      19306.331     -246.2499     
   3688000   299.60808      374.29179      18496.989      19299.957     -475.12231    
   3689000   285.28832      376.24225      18511.848      19296.277     -295.0761     
   3690000   285.41266      374.82001      18510.762      19293.947     -536.18831    
Loop time of 2.49348 on 4 procs for 10000 steps with 481 atoms

Performance: 17.325 ns/day, 1.385 hours/ns, 4010.462 timesteps/s, 1.929 Matom-step/s
99.4% CPU use with 4 MPI tasks x no OpenMP threads

MPI task timing breakdown:
Section |  min time  |  avg time  |  max time  |%varavg| %total
---------------------------------------------------------------
Pair    | 0.3875     | 0.62758    | 0.84014    |  20.5 | 25.17
Bond    | 0.79539    | 0.88151    | 0.97563    |   7.6 | 35.35
Neigh   | 0.025581   | 0.025587   | 0.025596   |   0.0 |  1.03
Comm    | 0.5495     | 0.85572    | 1.1823     |  24.2 | 34.32
Output  | 0.00028337 | 0.00031684 | 0.00040717 |   0.0 |  0.01
Modify  | 0.066413   | 0.067171   | 0.067747   |   0.2 |  2.69
Other   |            | 0.03559    |            |       |  1.43

Nlocal:         120.25 ave         126 max         115 min
Histogram: 2 0 0 0 0 0 0 0 0 2
Nghost:        4154.75 ave        4180 max        4132 min
Histogram: 1 1 0 0 0 0 0 1 0 1
Neighs:              0 ave           0 max           0 min
Histogram: 4 0 0 0 0 0 0 0 0 0

Total # of neighbors = 0
Ave neighs/atom = 0
Ave special neighs/atom = 15.567568
Neighbor list builds = 28
Dangerous builds = 0
fix             myat1 all ave/time 100 10 1000 v_zave v_zdes file simulation_data/abpot/${cpt}.dat
fix             myat1 all ave/time 100 10 1000 v_zave v_zdes file simulation_data/abpot/62.dat
run             50000
Generated 0 of 1 mixed pair_coeff terms from geometric mixing rule
Per MPI rank memory allocation (min/avg/max) = 14.61 | 14.61 | 14.61 Mbytes
   Step          Temp          E_pair         E_mol          TotEng         Press     
   3690000   285.41266      374.82001      18510.762      19293.947     -536.18831    
   3691000   291.40189      381.12835      18507.326      19305.389     -241.85683    
   3692000   287.2651       381.60486      18526.095      19318.715     -377.9778     
   3693000   312.67214      373.55782      18513.32       19334.246     -506.64204    
   3694000   308.65085      381.32337      18523.734      19346.672     -237.46764    
   3695000   308.10937      381.91751      18519.354      19342.111     -112.3751     
   3696000   299.41964      371.86842      18545.477      19345.751     -452.484      
   3697000   301.3112       378.83333      18525.284      19335.23      -210.96028    
   3698000   301.40661      373.68633      18511.047      19315.983     -498.45322    
   3699000   293.53816      381.1166       18496.871      19297.979     -192.64259    
   3700000   282.9807       381.58274      18495.136      19281.605     -323.99021    
   3701000   277.00015      371.86886      18505.56       19273.757     -469.24391    
   3702000   284.42618      375.08299      18487.12       19269.157     -429.55666    
   3703000   284.71808      383.74938      18495.958      19287.079     -179.20238    
   3704000   299.43704      380.84456      18503.71       19312.986     -196.76419    
   3705000   288.41017      377.12131      18532.405      19322.18      -455.2682     
   3706000   297.90497      377.15413      18526.343      19329.737     -562.0781     
   3707000   290.72824      382.25275      18532.933      19331.156     -270.29575    
   3708000   301.29928      384.94021      18511.028      19327.064     -200.75563    
   3709000   322.68539      376.50849      18492.697      19330.901     -514.75145    
   3710000   295.2369       373.55441      18529.975      19325.951     -582.35829    
   3711000   312.13395      384.35436      18489.935      19320.887     -59.182674    
   3712000   304.95399      379.53332      18501.18       19317.038     -89.256933    
   3713000   291.52891      374.08182      18528.844      19320.042     -591.76354    
   3714000   284.49702      376.7605       18530.395      19314.211     -293.9937     
   3715000   280.93007      378.07073      18530.498      19310.52      -363.85119    
   3716000   301.90247      377.31635      18509.76       19319.035     -219.39564    
   3717000   285.89097      378.30598      18533.873      19321.229     -257.29281    
   3718000   286.79085      375.84907      18552.172      19338.358     -472.2046     
   3719000   309.78626      381.93062      18523.959      19349.128     -168.02766    
   3720000   317.70802      375.56782      18527.221      19357.362     -467.94228    
   3721000   317.75873      371.68803      18530.01       19356.344     -518.89944    
   3722000   316.62032      380.70036      18504.993      19338.711     -149.71818    
   3723000   286.98138      372.58324      18528.38       19311.573     -543.07603    
   3724000   293.13995      373.40868      18509.481      19302.311     -489.02989    
   3725000   286.78138      382.0272       18507.088      19299.439     -250.91686    
   3726000   294.44575      377.33462      18500.451      19299.076     -415.97039    
   3727000   290.30635      379.63497      18512.889      19307.891     -329.10956    
   3728000   307.37387      379.3149       18500.186      19319.288     -341.2102     
   3729000   296.33438      372.34623      18532.662      19329         -591.30076    
   3730000   311.50424      384.73271      18507.822      19338.252     -47.775225    
   3731000   322.98046      379.11187      18510.909      19352.137     -255.55508    
   3732000   326.77755      370.48141      18524.98       19363.011     -500.29668    
   3733000   311.86727      386.1592       18533.022      19365.398     -67.477827    
   3734000   313.06941      380.94746      18525.903      19354.787     -183.53408    
   3735000   295.07508      376.81085      18540.11       19339.111     -468.83008    
   3736000   293.58252      379.43589      18523.911      19323.402     -263.7691     
   3737000   297.69474      374.21283      18509.618      19309.77      -338.89079    
   3738000   296.06456      385.37674      18495.217      19304.199     -81.390017    
   3739000   285.97823      376.14481      18520.103      19305.422     -370.83126    
   3740000   290.91234      372.81859      18521.087      19310.14      -490.16488    
Loop time of 12.7024 on 4 procs for 50000 steps with 481 atoms

Performance: 17.005 ns/day, 1.411 hours/ns, 3936.274 timesteps/s, 1.893 Matom-step/s
99.1% CPU use with 4 MPI tasks x no OpenMP threads

MPI task timing breakdown:
Section |  min time  |  avg time  |  max time  |%varavg| %total
---------------------------------------------------------------
Pair    | 1.9359     | 3.1462     | 4.246      |  46.8 | 24.77
Bond    | 3.9667     | 4.428      | 4.939      |  18.3 | 34.86
Neigh   | 0.12378    | 0.12385    | 0.12394    |   0.0 |  0.98
Comm    | 2.8517     | 4.4568     | 6.1336     |  55.0 | 35.09
Output  | 0.0017288  | 0.0026066  | 0.0029216  |   1.0 |  0.02
Modify  | 0.3535     | 0.36144    | 0.36816    |   0.9 |  2.85
Other   |            | 0.1834     |            |       |  1.44

Nlocal:         120.25 ave         127 max         114 min
Histogram: 2 0 0 0 0 0 0 0 1 1
Nghost:        4175.75 ave        4197 max        4153 min
Histogram: 1 1 0 0 0 0 0 0 0 2
Neighs:              0 ave           0 max           0 min
Histogram: 4 0 0 0 0 0 0 0 0 0

Total # of neighbors = 0
Ave neighs/atom = 0
Ave special neighs/atom = 15.567568
Neighbor list builds = 134
Dangerous builds = 0
unfix           myat1
next            cpt
jump            SELF loop
variable        zdes equal  -15+0.30*(${cpt}-1)
variable        zdes equal  -15+0.30*(63-1)
fix             mytth2 H2 spring tether ${k1} 5 5 ${zdes} 0
fix             mytth2 H2 spring tether 0.5 5 5 ${zdes} 0
fix             mytth2 H2 spring tether 0.5 5 5 3.6 0
run             10000
Generated 0 of 1 mixed pair_coeff terms from geometric mixing rule
Per MPI rank memory allocation (min/avg/max) = 14.61 | 14.61 | 14.61 Mbytes
   Step          Temp          E_pair         E_mol          TotEng         Press     
   3740000   290.91234      372.81859      18521.087      19310.14      -490.16488    
   3741000   306.60079      381.70037      18497.537      19317.918     -140.57978    
   3742000   300.0606       382.93132      18525.396      19337.65      -139.40405    
   3743000   310.88871      375.91273      18536.703      19357.432     -368.0751     
   3744000   326.68172      372.64852      18523.594      19363.655     -478.9457     
   3745000   299.10849      381.4539       18543.069      19352.484     -261.51014    
   3746000   288.59964      381.9261       18543.369      19338.22      -164.31299    
   3747000   293.00142      371.1727       18540.154      19330.55      -748.53222    
   3748000   308.26971      380.41868      18500.244      19321.732     -233.44481    
   3749000   307.09353      377.96854      18504.51       19321.864     -323.81838    
   3750000   303.04705      380.832        18503.697      19318.125     -169.31352    
Loop time of 2.53076 on 4 procs for 10000 steps with 481 atoms

Performance: 17.070 ns/day, 1.406 hours/ns, 3951.382 timesteps/s, 1.901 Matom-step/s
98.5% CPU use with 4 MPI tasks x no OpenMP threads

MPI task timing breakdown:
Section |  min time  |  avg time  |  max time  |%varavg| %total
---------------------------------------------------------------
Pair    | 0.38902    | 0.62676    | 0.8345     |  20.3 | 24.77
Bond    | 0.79809    | 0.88433    | 0.97881    |   7.7 | 34.94
Neigh   | 0.023549   | 0.023552   | 0.023555   |   0.0 |  0.93
Comm    | 0.57383    | 0.87596    | 1.1999     |  23.7 | 34.61
Output  | 0.00029392 | 0.0003242  | 0.0003995  |   0.0 |  0.01
Modify  | 0.083145   | 0.083581   | 0.083997   |   0.1 |  3.30
Other   |            | 0.03626    |            |       |  1.43

Nlocal:         120.25 ave         129 max         112 min
Histogram: 1 0 1 0 0 0 0 1 0 1
Nghost:         4179.5 ave        4203 max        4153 min
Histogram: 1 0 1 0 0 0 0 0 0 2
Neighs:              0 ave           0 max           0 min
Histogram: 4 0 0 0 0 0 0 0 0 0

Total # of neighbors = 0
Ave neighs/atom = 0
Ave special neighs/atom = 15.567568
Neighbor list builds = 26
Dangerous builds = 0
fix             myat1 all ave/time 100 10 1000 v_zave v_zdes file simulation_data/abpot/${cpt}.dat
fix             myat1 all ave/time 100 10 1000 v_zave v_zdes file simulation_data/abpot/63.dat
run             50000
Generated 0 of 1 mixed pair_coeff terms from geometric mixing rule
Per MPI rank memory allocation (min/avg/max) = 14.61 | 14.61 | 14.61 Mbytes
   Step          Temp          E_pair         E_mol          TotEng         Press     
   3750000   303.04705      380.832        18503.697      19318.125     -169.31352    
   3751000   293.20788      374.02984      18517.968      19311.516     -557.9107     
   3752000   311.66832      372.35549      18494.346      19312.633     -398.71485    
   3753000   301.90153      384.76409      18489.711      19306.432     -167.02452    
   3754000   293.87443      375.94323      18517.395      19313.81      -347.4895     
   3755000   297.16699      372.43843      18537.389      19335.011     -653.57622    
   3756000   311.33086      381.34752      18535.322      19362.118     -274.20175    
   3757000   305.05077      382.84616      18547.312      19366.621     -295.15446    
   3758000   319.21172      377.24439      18530.689      19364.658     -353.88029    
   3759000   317.40679      371.35297      18521.693      19347.188     -593.42253    
   3760000   310.91809      376.9512       18507.949      19329.758     -177.20669    
   3761000   297.96138      385.76377      18504.799      19316.883     -140.35769    
   3762000   278.5622       373.51959      18539.289      19311.372     -565.63588    
   3763000   303.02615      372.61197      18504.127      19310.305     -503.93495    
   3764000   288.73874      383.77092      18503.692      19300.588     -113.98771    
   3765000   284.70532      382.4129       18511.237      19301.003     -258.92066    
   3766000   298.55355      375.84738      18512.127      19315.141     -297.86625    
   3767000   300.50729      375.78502      18521.041      19326.788     -554.53563    
   3768000   322.79322      383.64189      18505.384      19350.875     -71.842652    
   3769000   310.53587      381.83528      18536.153      19362.299     -376.68244    
   3770000   318.75445      373.77961      18529.183      19359.033     -419.86067    
   3771000   304.50741      374.94177      18530.49       19341.118     -628.38648    
   3772000   302.35294      386.90352      18505.532      19325.039      132.5611     
   3773000   309.85118      373.4596       18502.974      19319.766     -572.38198    
   3774000   311.76072      372.0743       18501.477      19319.615     -372.05327    
   3775000   296.87707      375.35518      18512.411      19312.535     -427.61033    
   3776000   301.10022      381.70631      18495.114      19307.631     -176.76439    
   3777000   301.44267      373.90927      18502.29       19307.5       -412.90245    
   3778000   305.73835      374.06328      18498.81       19310.321     -310.63789    
   3779000   305.77356      375.65047      18496.273      19309.421     -294.45378    
   3780000   301.67428      385.385        18521.95       19338.967     -111.3608     
   3781000   310.5823       377.45698      18533.683      19355.518     -285.45563    
   3782000   322.20644      370.94283      18527.921      19359.873     -484.34156    
   3783000   292.98114      382.93347      18549.544      19351.671     -235.76889    
   3784000   301.24932      382.79797      18520.279      19334.101     -52.270375    
   3785000   296.91624      372.90402      18527.379      19325.107     -502.21295    
   3786000   299.76371      370.42924      18514.383      19313.711     -628.94139    
   3787000   291.5571       384.02824      18503.107      19304.292     -91.903908    
   3788000   295.02818      378.33301      18502.842      19303.298     -352.15846    
   3789000   295.194        375.59699      18507.879      19305.836     -449.84748    
   3790000   290.27386      372.56153      18519.884      19307.766     -611.95475    
   3791000   301.011        380.22442      18503.971      19314.879     -321.09181    
   3792000   311.17591      382.01047      18499.969      19327.206     -146.11827    
   3793000   295.34516      368.32001      18552.654      19343.55      -706.37498    
   3794000   322.70684      377.14013      18521.132      19359.998     -388.33021    
   3795000   319.10048      382.40265      18521.517      19360.485     -288.05714    
   3796000   328.13684      378.03492      18522.127      19369.657     -278.44433    
   3797000   303.29817      375.1639       18544.915      19354.034     -507.28051    
   3798000   301.62947      374.79759      18522.82       19329.186     -318.67574    
   3799000   307.68618      381.53636      18490.03       19311.8       -245.37308    
   3800000   306.10755      372.95089      18487.468      19298.394     -387.01576    
Loop time of 12.825 on 4 procs for 50000 steps with 481 atoms

Performance: 16.842 ns/day, 1.425 hours/ns, 3898.641 timesteps/s, 1.875 Matom-step/s
98.9% CPU use with 4 MPI tasks x no OpenMP threads

MPI task timing breakdown:
Section |  min time  |  avg time  |  max time  |%varavg| %total
---------------------------------------------------------------
Pair    | 1.949      | 3.1567     | 4.2371     |  46.2 | 24.61
Bond    | 3.9969     | 4.4531     | 4.9561     |  18.1 | 34.72
Neigh   | 0.13166    | 0.13179    | 0.1319     |   0.0 |  1.03
Comm    | 2.9342     | 4.519      | 6.1804     |  54.1 | 35.24
Output  | 0.0016403  | 0.002492   | 0.0028211  |   1.0 |  0.02
Modify  | 0.37072    | 0.3748     | 0.37994    |   0.5 |  2.92
Other   |            | 0.1871     |            |       |  1.46

Nlocal:         120.25 ave         128 max         112 min
Histogram: 1 1 0 0 0 0 0 0 1 1
Nghost:           4163 ave        4189 max        4141 min
Histogram: 2 0 0 0 0 0 0 1 0 1
Neighs:              0 ave           0 max           0 min
Histogram: 4 0 0 0 0 0 0 0 0 0

Total # of neighbors = 0
Ave neighs/atom = 0
Ave special neighs/atom = 15.567568
Neighbor list builds = 142
Dangerous builds = 0
unfix           myat1
next            cpt
jump            SELF loop
variable        zdes equal  -15+0.30*(${cpt}-1)
variable        zdes equal  -15+0.30*(64-1)
fix             mytth2 H2 spring tether ${k1} 5 5 ${zdes} 0
fix             mytth2 H2 spring tether 0.5 5 5 ${zdes} 0
fix             mytth2 H2 spring tether 0.5 5 5 3.9 0
run             10000
Generated 0 of 1 mixed pair_coeff terms from geometric mixing rule
Per MPI rank memory allocation (min/avg/max) = 14.61 | 14.61 | 14.61 Mbytes
   Step          Temp          E_pair         E_mol          TotEng         Press     
   3800000   306.10755      372.95089      18487.468      19298.394     -387.01576    
   3801000   298.27892      372.48024      18498.23       19297.484     -521.54764    
   3802000   292.06606      374.65414      18505.883      19298.422     -414.43174    
   3803000   295.22746      381.04729      18498.405      19301.861     -97.755819    
   3804000   284.295        375.39097      18523.353      19305.51      -445.4328     
   3805000   305.49722      368.22202      18528.67       19333.994     -650.83219    
   3806000   305.8382       382.11694      18520.854      19340.561     -266.8574     
   3807000   308.6387       379.1065       18527.004      19347.707     -165.02471    
   3808000   316.3567       377.57821      18516.116      19346.334     -433.6373     
   3809000   278.01668      373.40058      18556.441      19327.625     -639.30143    
   3810000   296.44779      376.07853      18508.246      19308.478     -337.14865    
Loop time of 2.60044 on 4 procs for 10000 steps with 481 atoms

Performance: 16.613 ns/day, 1.445 hours/ns, 3845.509 timesteps/s, 1.850 Matom-step/s
98.4% CPU use with 4 MPI tasks x no OpenMP threads

MPI task timing breakdown:
Section |  min time  |  avg time  |  max time  |%varavg| %total
---------------------------------------------------------------
Pair    | 0.39529    | 0.6379     | 0.85536    |  20.8 | 24.53
Bond    | 0.81166    | 0.89866    | 0.99563    |   7.5 | 34.56
Neigh   | 0.025042   | 0.02506    | 0.025078   |   0.0 |  0.96
Comm    | 0.60329    | 0.91916    | 1.2471     |  23.8 | 35.35
Output  | 0.00029346 | 0.00032318 | 0.00039992 |   0.0 |  0.01
Modify  | 0.078177   | 0.080116   | 0.082003   |   0.6 |  3.08
Other   |            | 0.03923    |            |       |  1.51

Nlocal:         120.25 ave         125 max         116 min
Histogram: 2 0 0 0 0 0 0 0 1 1
Nghost:         4167.5 ave        4191 max        4145 min
Histogram: 1 1 0 0 0 0 0 0 1 1
Neighs:              0 ave           0 max           0 min
Histogram: 4 0 0 0 0 0 0 0 0 0

Total # of neighbors = 0
Ave neighs/atom = 0
Ave special neighs/atom = 15.567568
Neighbor list builds = 27
Dangerous builds = 0
fix             myat1 all ave/time 100 10 1000 v_zave v_zdes file simulation_data/abpot/${cpt}.dat
fix             myat1 all ave/time 100 10 1000 v_zave v_zdes file simulation_data/abpot/64.dat
run             50000
Generated 0 of 1 mixed pair_coeff terms from geometric mixing rule
Per MPI rank memory allocation (min/avg/max) = 14.61 | 14.61 | 14.61 Mbytes
   Step          Temp          E_pair         E_mol          TotEng         Press     
   3810000   296.44779      376.07853      18508.246      19308.478     -337.14865    
   3811000   307.71851      381.40375      18464.408      19286.092     -83.675449    
   3812000   285.34252      370.49098      18507.571      19286.327     -579.5405     
   3813000   283.63505      374.80021      18507.64       19288.262     -431.31878    
   3814000   284.3285       375.44189      18509.502      19291.758     -394.70341    
   3815000   295.02539      379.73061      18502.827      19304.676     -334.06728    
   3816000   299.23134      374.30517      18519.313      19321.755     -418.99534    
   3817000   315.52738      373.74458      18510.589      19335.787     -468.87367    
   3818000   319.01549      381.16356      18503.049      19340.656     -97.279526    
   3819000   314.23564      378.62473      18509.084      19337.313     -277.55408    
   3820000   300.56248      369.55823      18526.173      19325.773     -539.73747    
   3821000   300.33387      378.64592      18506.404      19314.765     -284.78777    
   3822000   294.65277      383.8907       18488.15       19293.627     -112.02277    
   3823000   283.00202      375.97085      18492.88       19273.767     -358.98904    
   3824000   281.42781      372.33688      18502.462      19277.463     -432.90078    
   3825000   278.27881      378.1938       18500.029      19276.381     -324.63478    
   3826000   286.70632      382.41755      18486.782      19279.415     -18.169207    
   3827000   288.39418      380.19479      18497.858      19290.684     -215.77005    
   3828000   283.52569      367.17091      18531.557      19304.393     -609.68023    
   3829000   291.11059      384.02803      18507.833      19308.379     -240.41125    
   3830000   310.74994      391.19681      18496.47       19332.284      274.23031    
   3831000   306.04433      372.12248      18524.636      19334.643     -663.91413    
   3832000   323.95244      371.41827      18502.276      19337.202     -502.16117    
   3833000   305.83156      386.02209      18508.261      19331.864      41.786543    
   3834000   303.01956      376.72143      18517.118      19327.396     -343.22885    
   3835000   297.84875      372.19015      18518.763      19317.112     -505.6996     
   3836000   296.05984      374.17734      18499.203      19296.98      -392.34642    
   3837000   276.63396      377.69404      18504.111      19277.61      -292.77299    
   3838000   292.10053      383.82173      18475.325      19277.081     -116.41014    
   3839000   302.51462      366.83404      18490.724      19290.393     -606.53603    
   3840000   284.20216      370.35467      18516.627      19293.615     -492.31482    
   3841000   288.26241      386.71283      18512.828      19311.983      41.994337    
   3842000   302.40686      372.32124      18515.154      19320.155     -612.79356    
   3843000   299.11059      374.03279      18521.355      19323.352     -490.11759    
   3844000   303.25925      380.4896       18514.883      19329.272     -272.33873    
   3845000   290.28676      382.21013      18524.592      19322.141     -99.782604    
   3846000   296.2169       379.09703      18516.529      19319.45      -311.21984    
   3847000   309.37565      371.62237      18509.847      19324.12      -479.66335    
   3848000   315.65481      376.22552      18496.354      19324.215     -399.88942    
   3849000   300.38919      383.23359      18510.476      19323.503     -55.838869    
   3850000   327.38927      368.11167      18497.875      19334.412     -636.05764    
   3851000   302.28447      376.32903      18530.417      19339.251     -420.89782    
   3852000   294.39094      385.41587      18524.645      19331.272     -201.338      
   3853000   296.44225      378.75095      18524.937      19327.834     -232.39106    
   3854000   299.29963      372.57741      18527.893      19328.704     -642.45723    
   3855000   299.72157      376.39793      18523.246      19328.482     -450.54135    
   3856000   311.92948      383.962        18486.417      19316.684     -193.5614     
   3857000   292.0576       381.59968      18500.725      19300.198     -251.99416    
   3858000   285.19474      368.40042      18518.478      19294.932     -600.37214    
   3859000   280.17592      377.86309      18503.715      19282.451     -483.29097    
   3860000   275.84301      382.12346      18518.15       19294.947     -239.9753     
Loop time of 12.6238 on 4 procs for 50000 steps with 481 atoms

Performance: 17.111 ns/day, 1.403 hours/ns, 3960.777 timesteps/s, 1.905 Matom-step/s
99.2% CPU use with 4 MPI tasks x no OpenMP threads

MPI task timing breakdown:
Section |  min time  |  avg time  |  max time  |%varavg| %total
---------------------------------------------------------------
Pair    | 1.9328     | 3.1326     | 4.187      |  45.8 | 24.82
Bond    | 3.9718     | 4.4293     | 4.9359     |  18.0 | 35.09
Neigh   | 0.13135    | 0.13138    | 0.13142    |   0.0 |  1.04
Comm    | 2.8383     | 4.3928     | 6.0556     |  54.4 | 34.80
Output  | 0.0016332  | 0.0023291  | 0.0025853  |   0.8 |  0.02
Modify  | 0.34629    | 0.35409    | 0.36088    |   1.0 |  2.80
Other   |            | 0.1813     |            |       |  1.44

Nlocal:         120.25 ave         131 max         110 min
Histogram: 2 0 0 0 0 0 0 0 0 2
Nghost:        4163.75 ave        4193 max        4137 min
Histogram: 2 0 0 0 0 0 0 0 1 1
Neighs:              0 ave           0 max           0 min
Histogram: 4 0 0 0 0 0 0 0 0 0

Total # of neighbors = 0
Ave neighs/atom = 0
Ave special neighs/atom = 15.567568
Neighbor list builds = 144
Dangerous builds = 0
unfix           myat1
next            cpt
jump            SELF loop
variable        zdes equal  -15+0.30*(${cpt}-1)
variable        zdes equal  -15+0.30*(65-1)
fix             mytth2 H2 spring tether ${k1} 5 5 ${zdes} 0
fix             mytth2 H2 spring tether 0.5 5 5 ${zdes} 0
fix             mytth2 H2 spring tether 0.5 5 5 4.2 0
run             10000
Generated 0 of 1 mixed pair_coeff terms from geometric mixing rule
Per MPI rank memory allocation (min/avg/max) = 14.61 | 14.61 | 14.61 Mbytes
   Step          Temp          E_pair         E_mol          TotEng         Press     
   3860000   275.84301      382.12346      18518.15       19294.947     -239.9753     
   3861000   290.65971      380.74255      18525.528      19322.143     -344.20184    
   3862000   304.65809      372.29671      18534.68       19342.878     -526.33983    
   3863000   307.39487      374.30954      18538.689      19352.816     -480.57599    
   3864000   300.7734       382.64162      18525.595      19338.58      -406.28842    
   3865000   307.50183      377.72278      18517.398      19335.091     -295.96327    
   3866000   314.16701      374.6379       18512.858      19337.002     -475.65535    
   3867000   302.85069      377.18307      18515.41       19325.909     -338.52572    
   3868000   304.89903      382.12403      18494.863      19313.233     -224.63032    
   3869000   286.70669      380.6064       18504.678      19295.501     -325.21018    
   3870000   280.90681      377.41942      18503.262      19282.599     -369.12402    
Loop time of 2.5357 on 4 procs for 10000 steps with 481 atoms

Performance: 17.037 ns/day, 1.409 hours/ns, 3943.685 timesteps/s, 1.897 Matom-step/s
99.0% CPU use with 4 MPI tasks x no OpenMP threads

MPI task timing breakdown:
Section |  min time  |  avg time  |  max time  |%varavg| %total
---------------------------------------------------------------
Pair    | 0.39061    | 0.63013    | 0.84388    |  20.7 | 24.85
Bond    | 0.80525    | 0.8906     | 0.98702    |   7.6 | 35.12
Neigh   | 0.027471   | 0.02749    | 0.027509   |   0.0 |  1.08
Comm    | 0.56297    | 0.87685    | 1.198      |  24.0 | 34.58
Output  | 0.00029829 | 0.00032796 | 0.00040633 |   0.0 |  0.01
Modify  | 0.069383   | 0.073462   | 0.077478   |   1.4 |  2.90
Other   |            | 0.03683    |            |       |  1.45

Nlocal:         120.25 ave         125 max         116 min
Histogram: 2 0 0 0 0 0 0 0 1 1
Nghost:        4165.25 ave        4189 max        4141 min
Histogram: 1 0 1 0 0 0 0 1 0 1
Neighs:              0 ave           0 max           0 min
Histogram: 4 0 0 0 0 0 0 0 0 0

Total # of neighbors = 0
Ave neighs/atom = 0
Ave special neighs/atom = 15.567568
Neighbor list builds = 30
Dangerous builds = 0
fix             myat1 all ave/time 100 10 1000 v_zave v_zdes file simulation_data/abpot/${cpt}.dat
fix             myat1 all ave/time 100 10 1000 v_zave v_zdes file simulation_data/abpot/65.dat
run             50000
Generated 0 of 1 mixed pair_coeff terms from geometric mixing rule
Per MPI rank memory allocation (min/avg/max) = 14.61 | 14.61 | 14.61 Mbytes
   Step          Temp          E_pair         E_mol          TotEng         Press     
   3870000   280.90681      377.41942      18503.262      19282.599     -369.12402    
   3871000   270.63115      375.15212      18511.932      19274.3       -452.72893    
   3872000   303.87527      378.78075      18475.119      19288.681     -321.53861    
   3873000   306.18398      379.184        18499.293      19316.562     -222.71302    
   3874000   299.66017      376.63744      18532.198      19337.586     -509.43187    
   3875000   311.1275       378.68972      18515.983      19339.831     -161.85447    
   3876000   308.62974      375.33696      18531.204      19348.125     -405.36554    
   3877000   294.56006      382.75265      18537.348      19341.554     -212.09381    
   3878000   298.8871       376.91635      18527.707      19332.268     -320.20514    
   3879000   301.96789      378.1165       18511.88       19322.049     -366.10434    
   3880000   290.71812      377.21684      18512.663      19305.836     -331.51509    
   3881000   305.05177      374.93671      18490.192      19301.594     -351.54973    
   3882000   287.1549       375.42544      18501.874      19288.158     -455.11166    
   3883000   288.69433      382.10859      18495.841      19291.01      -43.378272    
   3884000   289.58006      370.66551      18521.617      19306.611     -603.33745    
   3885000   302.91303      378.20312      18522.802      19334.41      -391.1182     
   3886000   307.68914      380.03574      18528.206      19348.48      -361.80224    
   3887000   310.34864      380.42788      18529.798      19354.27      -226.8918     
   3888000   301.65088      373.98958      18539.031      19344.619     -389.86942    
   3889000   304.50533      373.91736      18517.366      19326.966     -436.0059     
   3890000   298.72054      380.52314      18512.978      19320.908     -101.82507    
   3891000   293.74488      383.22423      18498.565      19302.076     -170.42597    
   3892000   290.04577      374.13821      18514.926      19304.059     -451.3879     
   3893000   303.28272      374.43769      18497.571      19305.942     -456.50914    
   3894000   291.2915       384.11082      18502.467      19303.355     -108.09752    
   3895000   306.54071      375.97717      18507.597      19322.169     -217.34004    
   3896000   308.60716      375.38817      18521.128      19338.068     -368.4706     
   3897000   310.06199      372.21003      18539.607      19355.45      -553.11167    
   3898000   312.60413      383.59323      18530.189      19361.052     -245.66252    
   3899000   326.7566       379.80185      18508.512      19355.833     -162.4413     
   3900000   314.99156      373.73914      18523.517      19347.943     -357.07152    
   3901000   291.54482      373.88436      18529.191      19320.214     -564.4587     
   3902000   296.04248      381.86159      18501.579      19307.015     -103.32703    
   3903000   290.10908      378.34084      18516.327      19309.752     -368.54288    
   3904000   294.11554      372.09801      18519.01       19311.925     -404.09524    
   3905000   302.68016      377.44116      18506.211      19316.724     -372.06006    
   3906000   296.68322      382.23949      18517.487      19324.218     -152.07073    
   3907000   303.8734       379.29157      18514.157      19328.227     -367.62435    
   3908000   308.98673      373.86419      18534.411      19350.37      -416.1261     
   3909000   299.19431      380.66789      18562.567      19371.319     -386.54819    
   3910000   329.56523      384.44414      18526.622      19382.604     -20.743892    
   3911000   316.04876      371.77837      18552.272      19376.25      -642.28759    
   3912000   318.20154      383.32074      18519.586      19358.186     -155.16972    
   3913000   308.33168      373.22925      18527.892      19342.279     -539.54872    
   3914000   307.60142      379.37135      18516.879      19336.363     -215.32817    
   3915000   300.36778      379.85139      18518.384      19327.999     -437.21913    
   3916000   304.82073      374.12758      18511.392      19321.654     -246.05811    
   3917000   307.5311       380.95744      18489.12       19310.09      -181.5265     
   3918000   293.455        375.20982      18511.919      19307.001     -198.02125    
   3919000   275.09295      375.74475      18528.381      19297.726     -402.09747    
   3920000   277.75254      384.5342       18515.052      19296.992     -92.365348    
Loop time of 12.9423 on 4 procs for 50000 steps with 481 atoms

Performance: 16.690 ns/day, 1.438 hours/ns, 3863.315 timesteps/s, 1.858 Matom-step/s
98.4% CPU use with 4 MPI tasks x no OpenMP threads

MPI task timing breakdown:
Section |  min time  |  avg time  |  max time  |%varavg| %total
---------------------------------------------------------------
Pair    | 1.945      | 3.1744     | 4.2459     |  46.4 | 24.53
Bond    | 4.0081     | 4.4755     | 4.9865     |  18.3 | 34.58
Neigh   | 0.12438    | 0.12446    | 0.12456    |   0.0 |  0.96
Comm    | 2.9893     | 4.5638     | 6.2697     |  54.4 | 35.26
Output  | 0.0017831  | 0.0026489  | 0.0029728  |   1.0 |  0.02
Modify  | 0.39547    | 0.40534    | 0.4148     |   1.2 |  3.13
Other   |            | 0.1961     |            |       |  1.52

Nlocal:         120.25 ave         128 max         113 min
Histogram: 2 0 0 0 0 0 0 0 0 2
Nghost:         4179.5 ave        4208 max        4152 min
Histogram: 1 0 1 0 0 0 0 1 0 1
Neighs:              0 ave           0 max           0 min
Histogram: 4 0 0 0 0 0 0 0 0 0

Total # of neighbors = 0
Ave neighs/atom = 0
Ave special neighs/atom = 15.567568
Neighbor list builds = 134
Dangerous builds = 0
unfix           myat1
next            cpt
jump            SELF loop
variable        zdes equal  -15+0.30*(${cpt}-1)
variable        zdes equal  -15+0.30*(66-1)
fix             mytth2 H2 spring tether ${k1} 5 5 ${zdes} 0
fix             mytth2 H2 spring tether 0.5 5 5 ${zdes} 0
fix             mytth2 H2 spring tether 0.5 5 5 4.5 0
run             10000
Generated 0 of 1 mixed pair_coeff terms from geometric mixing rule
Per MPI rank memory allocation (min/avg/max) = 14.61 | 14.61 | 14.61 Mbytes
   Step          Temp          E_pair         E_mol          TotEng         Press     
   3920000   277.75254      384.5342       18515.052      19296.992     -92.365348    
   3921000   290.29236      375.26102      18502.266      19292.874     -338.37376    
   3922000   302.8022       371.70682      18510.167      19315.12      -493.57764    
   3923000   298.57701      379.14473      18524.135      19330.481     -282.851      
   3924000   307.79093      382.4171       18523.994      19346.795     -161.71507    
   3925000   331.14577      374.02019      18510.042      19357.862     -587.82382    
   3926000   303.71586      377.14726      18531.24       19342.94      -276.2323     
   3927000   300.27933      375.28248      18532.816      19337.734     -401.07704    
   3928000   287.74999      382.51817      18520.339      19314.567     -217.86902    
   3929000   292.74945      379.24604      18507.141      19305.25      -286.64372    
   3930000   290.43534      374.28864      18505.529      19295.369     -643.28149    
Loop time of 2.52815 on 4 procs for 10000 steps with 481 atoms

Performance: 17.088 ns/day, 1.405 hours/ns, 3955.467 timesteps/s, 1.903 Matom-step/s
99.1% CPU use with 4 MPI tasks x no OpenMP threads

MPI task timing breakdown:
Section |  min time  |  avg time  |  max time  |%varavg| %total
---------------------------------------------------------------
Pair    | 0.38538    | 0.62699    | 0.83969    |  20.6 | 24.80
Bond    | 0.79601    | 0.88651    | 0.98929    |   8.2 | 35.07
Neigh   | 0.021623   | 0.02163    | 0.021644   |   0.0 |  0.86
Comm    | 0.56732    | 0.88372    | 1.2149     |  24.4 | 34.96
Output  | 0.00026329 | 0.00029248 | 0.00036896 |   0.0 |  0.01
Modify  | 0.071004   | 0.07234    | 0.073586   |   0.4 |  2.86
Other   |            | 0.03666    |            |       |  1.45

Nlocal:         120.25 ave         127 max         114 min
Histogram: 2 0 0 0 0 0 0 0 0 2
Nghost:         4149.5 ave        4171 max        4128 min
Histogram: 2 0 0 0 0 0 0 0 0 2
Neighs:              0 ave           0 max           0 min
Histogram: 4 0 0 0 0 0 0 0 0 0

Total # of neighbors = 0
Ave neighs/atom = 0
Ave special neighs/atom = 15.567568
Neighbor list builds = 24
Dangerous builds = 0
fix             myat1 all ave/time 100 10 1000 v_zave v_zdes file simulation_data/abpot/${cpt}.dat
fix             myat1 all ave/time 100 10 1000 v_zave v_zdes file simulation_data/abpot/66.dat
run             50000
Generated 0 of 1 mixed pair_coeff terms from geometric mixing rule
Per MPI rank memory allocation (min/avg/max) = 14.61 | 14.61 | 14.61 Mbytes
   Step          Temp          E_pair         E_mol          TotEng         Press     
   3930000   290.43534      374.28864      18505.529      19295.369     -643.28149    
   3931000   295.18476      376.30093      18504.676      19303.324     -359.52476    
   3932000   290.80375      381.67233      18505.534      19303.285     -225.72852    
   3933000   310.07302      376.74698      18483.52       19303.916     -366.36771    
   3934000   284.19172      371.7726       18527.86       19306.251     -585.93211    
   3935000   298.11441      382.38094      18510.915      19319.835     -212.86818    
   3936000   290.94723      380.67715      18522.958      19319.919     -146.9511     
   3937000   300.17936      378.13739      18524.261      19331.892     -261.95316    
   3938000   306.03397      375.71924      18517.313      19330.903     -369.72147    
   3939000   314.82382      374.2874       18502.185      19326.919     -412.56728    
   3940000   317.26841      386.8626       18491.346      19332.152      21.449942    
   3941000   309.11065      369.42207      18531.037      19342.731     -498.54008    
   3942000   309.26869      374.63128      18520.912      19338.042     -346.03788    
   3943000   301.5866       376.17559      18520.599      19328.281     -305.13579    
   3944000   285.25368      380.63536      18521.249      19310.022     -296.38906    
   3945000   285.04668      377.3842       18511.634      19296.859     -463.3412     
   3946000   292.8258       374.18484      18500.273      19293.43      -398.29952    
   3947000   281.62471      377.34424      18509.356      19289.646     -396.90513    
   3948000   294.0214       380.60475      18496.78       19298.067     -98.676802    
   3949000   317.3624       376.62897      18485.937      19316.644     -379.5893     
   3950000   303.51785      373.17067      18529.096      19336.537     -387.50356    
   3951000   309.02823      377.66613      18525.132      19344.952     -293.04951    
   3952000   309.48599      377.55166      18527.454      19347.815     -393.25618    
   3953000   305.43031      377.46095      18528.407      19342.874     -304.28517    
   3954000   314.45449      375.66022      18517.372      19342.95      -424.51591    
   3955000   304.8028       379.76191      18505.396      19321.267     -91.297107    
   3956000   325.86448      373.16767      18481.571      19320.982     -499.81255    
   3957000   287.6982       375.58875      18519.622      19306.846     -416.20157    
   3958000   291.54878      379.1104       18511.756      19308.011     -311.38693    
   3959000   290.66342      376.82593      18520.016      19312.72      -150.16852    
   3960000   287.70576      374.33785      18524.92       19310.905     -542.69914    
   3961000   301.9307       375.72096      18512.949      19320.669     -345.2814     
   3962000   306.89942      377.58846      18502.476      19319.173     -297.12091    
   3963000   296.73071      381.40448      18507.817      19313.781     -143.22244    
   3964000   304.56561      368.60333      18520.227      19324.6       -630.61992    
   3965000   300.11716      376.18636      18518.801      19324.392     -151.22336    
   3966000   297.31966      378.72793      18510.568      19314.698     -222.7138     
   3967000   300.64053      378.26592      18510.826      19319.245     -192.2446     
   3968000   291.4233       371.17234      18518.883      19307.02      -533.21766    
   3969000   279.80298      373.66542      18516.307      19290.311     -320.4434     
   3970000   279.07129      385.50998      18488.161      19272.963     -67.168328    
   3971000   295.55753      374.79019      18472.594      19270.264     -246.40868    
   3972000   301.43673      369.62393      18485.716      19286.632     -541.79539    
   3973000   299.31297      378.84098      18498.227      19305.321     -226.83067    
   3974000   296.83814      380.1598       18512.519      19317.391     -333.03294    
   3975000   312.7664       375.73309      18498.622      19321.858     -450.56937    
   3976000   301.23119      370.36384      18527.02       19328.382     -515.08825    
   3977000   297.81966      379.18294      18519.635      19324.935     -248.24326    
   3978000   304.71479      380.00151      18511.515      19327.499     -393.90063    
   3979000   300.36634      376.46757      18512.903      19319.131     -353.26013    
   3980000   293.46007      372.27769      18508.097      19300.254     -541.18223    
Loop time of 12.4167 on 4 procs for 50000 steps with 481 atoms

Performance: 17.396 ns/day, 1.380 hours/ns, 4026.820 timesteps/s, 1.937 Matom-step/s
99.6% CPU use with 4 MPI tasks x no OpenMP threads

MPI task timing breakdown:
Section |  min time  |  avg time  |  max time  |%varavg| %total
---------------------------------------------------------------
Pair    | 1.9137     | 3.1062     | 4.1455     |  45.5 | 25.02
Bond    | 3.9562     | 4.4032     | 4.9018     |  17.9 | 35.46
Neigh   | 0.11931    | 0.11931    | 0.11932    |   0.0 |  0.96
Comm    | 2.7355     | 4.2701     | 5.9118     |  54.5 | 34.39
Output  | 0.0014783  | 0.0021207  | 0.0023674  |   0.8 |  0.02
Modify  | 0.33491    | 0.33957    | 0.34302    |   0.5 |  2.73
Other   |            | 0.1762     |            |       |  1.42

Nlocal:         120.25 ave         126 max         114 min
Histogram: 2 0 0 0 0 0 0 0 0 2
Nghost:         4167.5 ave        4197 max        4140 min
Histogram: 1 0 1 0 0 0 1 0 0 1
Neighs:              0 ave           0 max           0 min
Histogram: 4 0 0 0 0 0 0 0 0 0

Total # of neighbors = 0
Ave neighs/atom = 0
Ave special neighs/atom = 15.567568
Neighbor list builds = 132
Dangerous builds = 0
unfix           myat1
next            cpt
jump            SELF loop
variable        zdes equal  -15+0.30*(${cpt}-1)
variable        zdes equal  -15+0.30*(67-1)
fix             mytth2 H2 spring tether ${k1} 5 5 ${zdes} 0
fix             mytth2 H2 spring tether 0.5 5 5 ${zdes} 0
fix             mytth2 H2 spring tether 0.5 5 5 4.8 0
run             10000
Generated 0 of 1 mixed pair_coeff terms from geometric mixing rule
Per MPI rank memory allocation (min/avg/max) = 14.61 | 14.61 | 14.61 Mbytes
   Step          Temp          E_pair         E_mol          TotEng         Press     
   3980000   293.46007      372.27769      18508.097      19300.254     -541.18223    
   3981000   296.15769      374.46843      18482.137      19280.344     -250.15473    
   3982000   278.48528      378.90859      18486.855      19264.217     -293.16439    
   3983000   275.86017      373.88006      18498.474      19267.051     -489.26684    
   3984000   283.46148      371.15671      18502.783      19279.513     -545.83311    
   3985000   289.23253      380.59086      18489.884      19284.306     -36.445702    
   3986000   303.04978      376.1207       18487.958      19297.679     -391.69833    
   3987000   289.92237      376.89598      18514.96       19306.673     -510.34307    
   3988000   301.77838      378.38787      18502.957      19313.126     -258.30998    
   3989000   316.89681      376.35569      18487.937      19317.706     -278.37867    
   3990000   304.90299      379.08837      18513.308      19328.648     -261.42702    
Loop time of 2.48847 on 4 procs for 10000 steps with 481 atoms

Performance: 17.360 ns/day, 1.382 hours/ns, 4018.530 timesteps/s, 1.933 Matom-step/s
99.6% CPU use with 4 MPI tasks x no OpenMP threads

MPI task timing breakdown:
Section |  min time  |  avg time  |  max time  |%varavg| %total
---------------------------------------------------------------
Pair    | 0.37978    | 0.62294    | 0.83219    |  20.5 | 25.03
Bond    | 0.79067    | 0.88152    | 0.98241    |   8.2 | 35.42
Neigh   | 0.023544   | 0.023582   | 0.023621   |   0.0 |  0.95
Comm    | 0.54797    | 0.85741    | 1.1919     |  24.7 | 34.46
Output  | 0.00024775 | 0.0002691  | 0.00032525 |   0.0 |  0.01
Modify  | 0.066846   | 0.067691   | 0.068481   |   0.2 |  2.72
Other   |            | 0.03507    |            |       |  1.41

Nlocal:         120.25 ave         127 max         114 min
Histogram: 2 0 0 0 0 0 0 0 0 2
Nghost:         4173.5 ave        4195 max        4150 min
Histogram: 1 1 0 0 0 0 0 0 0 2
Neighs:              0 ave           0 max           0 min
Histogram: 4 0 0 0 0 0 0 0 0 0

Total # of neighbors = 0
Ave neighs/atom = 0
Ave special neighs/atom = 15.567568
Neighbor list builds = 26
Dangerous builds = 0
fix             myat1 all ave/time 100 10 1000 v_zave v_zdes file simulation_data/abpot/${cpt}.dat
fix             myat1 all ave/time 100 10 1000 v_zave v_zdes file simulation_data/abpot/67.dat
run             50000
Generated 0 of 1 mixed pair_coeff terms from geometric mixing rule
Per MPI rank memory allocation (min/avg/max) = 14.61 | 14.61 | 14.61 Mbytes
   Step          Temp          E_pair         E_mol          TotEng         Press     
   3990000   304.90299      379.08837      18513.308      19328.648     -261.42702    
   3991000   308.9378       374.77565      18521.764      19338.565     -342.67418    
   3992000   309.71049      380.06155      18512.957      19336.149     -439.33801    
   3993000   299.57922      384.88152      18520.03       19333.546     -60.809767    
   3994000   292.16318      365.42288      18541.883      19325.329     -858.31704    
   3995000   290.52881      377.8657       18512.425      19305.976     -260.54959    
   3996000   295.52711      386.08405      18482.168      19291.089     -81.974763    
   3997000   302.93958      372.91616      18473.975      19280.333     -382.31773    
   3998000   295.14669      374.32933      18494.156      19290.778     -374.67448    
   3999000   305.61895      372.35767      18490.355      19299.989     -361.19498    
   4000000   308.52202      379.40163      18486.012      19306.843     -371.04418    
   4001000   319.27275      383.63988      18493.224      19333.676     -24.967464    
   4002000   309.44281      365.70515      18529.609      19338.061     -793.78108    
   4003000   317.65129      377.46121      18505.697      19337.65      -391.89528    
   4004000   315.56842      385.01551      18502.421      19338.948     -125.36019    
   4005000   302.87645      376.13417      18521.576      19331.062     -312.954      
   4006000   304.93989      369.53683      18514.797      19320.638     -636.11823    
   4007000   285.08489      377.12343      18532.708      19317.728     -422.36978    
   4008000   301.01386      383.96813      18490.079      19304.734     -111.86963    
   4009000   288.66355      378.57694      18516.902      19308.496     -302.6709     
   4010000   296.02486      367.26865      18514.536      19305.354     -796.00592    
   4011000   296.20926      374.28696      18509.888      19307.987     -438.24934    
   4012000   294.95351      381.83023      18502.846      19306.693     -127.42262    
   4013000   308.34286      372.85         18505.966      19319.989     -421.19984    
   4014000   311.4535       365.27036      18534.576      19345.47      -751.15377    
   4015000   318.62646      375.49609      18533.201      19364.585     -201.77803    
   4016000   305.39805      380.69024      18539.53       19357.18      -194.23898    
   4017000   303.32277      375.57935      18542.793      19352.363     -464.29749    
   4018000   320.79934      371.41184      18510.358      19340.766     -593.08615    
   4019000   300.42096      377.20693      18506.789      19313.835     -221.55332    
   4020000   312.98515      377.82281      18479.84       19305.478     -382.50264    
   4021000   300.38009      377.92707      18497.71       19305.418     -301.31529    
   4022000   291.79178      367.94333      18514.403      19299.839     -700.90279    
   4023000   288.08018      376.68053      18510.313      19299.176     -296.67542    
   4024000   294.18253      380.71726      18511.81       19313.44      -305.23108    
   4025000   296.39122      371.03719      18533.754      19328.864     -526.40417    
   4026000   319.33269      375.41297      18520.295      19352.606     -555.92795    
   4027000   305.01701      379.80972      18540.77       19356.995     -196.27559    
   4028000   307.10375      379.17419      18533.349      19351.924     -306.78011    
   4029000   304.15866      374.5836       18536.805      19346.575     -245.61036    
   4030000   311.48819      372.5668       18517.041      19335.282     -694.27023    
   4031000   309.05915      384.16029      18497.033      19323.392      112.33207    
   4032000   305.85911      381.20312      18502.427      19321.25      -133.97997    
   4033000   295.61309      366.35839      18524.379      19313.698     -735.88883    
   4034000   326.97885      376.80564      18467.911      19312.554     -168.67462    
   4035000   289.8228       384.94369      18504.917      19304.535     -96.226808    
   4036000   295.62763      372.05186      18507.712      19302.744     -435.18284    
   4037000   303.45848      367.02047      18506.508      19307.714     -693.42177    
   4038000   286.99344      380.39089      18517.562      19308.58      -254.35884    
   4039000   288.55956      384.87553      18520.673      19318.416     -130.80922    
   4040000   304.34337      373.94237      18524.846      19334.239     -466.71885    
Loop time of 12.414 on 4 procs for 50000 steps with 481 atoms

Performance: 17.400 ns/day, 1.379 hours/ns, 4027.711 timesteps/s, 1.937 Matom-step/s
99.6% CPU use with 4 MPI tasks x no OpenMP threads

MPI task timing breakdown:
Section |  min time  |  avg time  |  max time  |%varavg| %total
---------------------------------------------------------------
Pair    | 1.9206     | 3.1089     | 4.1487     |  45.3 | 25.04
Bond    | 3.9804     | 4.402      | 4.8725     |  17.0 | 35.46
Neigh   | 0.12663    | 0.12668    | 0.12673    |   0.0 |  1.02
Comm    | 2.7558     | 4.2612     | 5.8749     |  53.5 | 34.33
Output  | 0.0014559  | 0.0020429  | 0.0022683  |   0.8 |  0.02
Modify  | 0.3311     | 0.33719    | 0.34235    |   0.7 |  2.72
Other   |            | 0.176      |            |       |  1.42

Nlocal:         120.25 ave         128 max         113 min
Histogram: 1 0 1 0 0 0 0 1 0 1
Nghost:        4171.25 ave        4199 max        4140 min
Histogram: 1 0 0 1 0 0 0 1 0 1
Neighs:              0 ave           0 max           0 min
Histogram: 4 0 0 0 0 0 0 0 0 0

Total # of neighbors = 0
Ave neighs/atom = 0
Ave special neighs/atom = 15.567568
Neighbor list builds = 140
Dangerous builds = 0
unfix           myat1
next            cpt
jump            SELF loop
variable        zdes equal  -15+0.30*(${cpt}-1)
variable        zdes equal  -15+0.30*(68-1)
fix             mytth2 H2 spring tether ${k1} 5 5 ${zdes} 0
fix             mytth2 H2 spring tether 0.5 5 5 ${zdes} 0
fix             mytth2 H2 spring tether 0.5 5 5 5.1 0
run             10000
Generated 0 of 1 mixed pair_coeff terms from geometric mixing rule
Per MPI rank memory allocation (min/avg/max) = 14.61 | 14.61 | 14.61 Mbytes
   Step          Temp          E_pair         E_mol          TotEng         Press     
   4040000   304.34337      373.94237      18524.846      19334.239     -466.71885    
   4041000   310.89767      368.4135       18533.929      19347.171     -634.65843    
   4042000   294.9879       381.27781      18537.551      19340.894     -205.09569    
   4043000   311.50567      388.5598       18507.31       19341.569      42.831158    
   4044000   314.552        368.06031      18518.685      19336.803     -559.72755    
   4045000   296.05465      366.12474      18522.935      19312.651     -683.16274    
   4046000   298.21919      385.40194      18488.784      19300.874      113.48089    
   4047000   287.70809      382.47449      18494.203      19288.327     -175.21109    
   4048000   287.6708       369.32764      18511.382      19292.306     -628.7932     
   4049000   290.29027      378.31043      18509.993      19303.648     -182.37532    
   4050000   305.50602      380.06522      18490.375      19307.554     -226.71315    
Loop time of 2.53769 on 4 procs for 10000 steps with 481 atoms

Performance: 17.023 ns/day, 1.410 hours/ns, 3940.590 timesteps/s, 1.895 Matom-step/s
98.6% CPU use with 4 MPI tasks x no OpenMP threads

MPI task timing breakdown:
Section |  min time  |  avg time  |  max time  |%varavg| %total
---------------------------------------------------------------
Pair    | 0.38211    | 0.62688    | 0.83949    |  20.7 | 24.70
Bond    | 0.79204    | 0.88376    | 0.98734    |   8.3 | 34.83
Neigh   | 0.026438   | 0.02645    | 0.026467   |   0.0 |  1.04
Comm    | 0.56039    | 0.88547    | 1.2129     |  24.6 | 34.89
Output  | 0.00026913 | 0.00029275 | 0.0003485  |   0.0 |  0.01
Modify  | 0.069469   | 0.078828   | 0.088203   |   3.2 |  3.11
Other   |            | 0.03602    |            |       |  1.42

Nlocal:         120.25 ave         127 max         114 min
Histogram: 2 0 0 0 0 0 0 0 0 2
Nghost:        4177.25 ave        4203 max        4151 min
Histogram: 1 0 1 0 0 0 0 0 1 1
Neighs:              0 ave           0 max           0 min
Histogram: 4 0 0 0 0 0 0 0 0 0

Total # of neighbors = 0
Ave neighs/atom = 0
Ave special neighs/atom = 15.567568
Neighbor list builds = 29
Dangerous builds = 0
fix             myat1 all ave/time 100 10 1000 v_zave v_zdes file simulation_data/abpot/${cpt}.dat
fix             myat1 all ave/time 100 10 1000 v_zave v_zdes file simulation_data/abpot/68.dat
run             50000
Generated 0 of 1 mixed pair_coeff terms from geometric mixing rule
Per MPI rank memory allocation (min/avg/max) = 14.61 | 14.61 | 14.61 Mbytes
   Step          Temp          E_pair         E_mol          TotEng         Press     
   4050000   305.50602      380.06522      18490.375      19307.554     -226.71315    
   4051000   295.08821      385.93984      18507.461      19315.61       77.578193    
   4052000   306.96358      369.43025      18513.345      19321.975     -622.80539    
   4053000   313.2818       372.05569      18504.78       19325.076     -334.24128    
   4054000   303.88883      387.85494      18498.962      19321.618     -24.98519     
   4055000   310.74319      378.09179      18504.088      19326.787     -253.9286     
   4056000   305.26802      372.29518      18517.551      19326.62      -580.20747    
   4057000   307.41464      372.02856      18508.938      19320.812     -484.3274     
   4058000   299.46213      387.00179      18501.272      19316.741     -31.420845    
   4059000   306.21022      374.22649      18507.008      19319.357     -307.52413    
   4060000   300.83606      367.83192      18519.115      19317.38      -638.36441    
   4061000   295.73893      378.22267      18501.39       19302.752     -264.32002    
   4062000   282.70742      380.60946      18505.057      19290.161     -203.314      
   4063000   279.84587      375.76729      18505.892      19282.059     -432.9548     
   4064000   284.6327       370.41214      18502.156      19279.817     -627.58134    
   4065000   283.11822      381.08797      18497.088      19283.258     -81.201477    
   4066000   317.50861      379.89481      18465.797      19299.98      -170.50539    
   4067000   295.87555      371.33961      18526.573      19321.248     -562.71941    
   4068000   303.63899      374.68404      18520.412      19329.54      -662.06495    
   4069000   310.48405      385.59127      18502.709      19332.537     -50.482574    
   4070000   291.40909      381.60781      18534.597      19333.15      -278.84868    
   4071000   295.3931       366.87949      18539.313      19328.838     -791.00388    
   4072000   316.35478      373.04225      18496.429      19322.108     -338.8956     
   4073000   304.48147      386.41522      18477.059      19299.123      24.643091    
   4074000   285.68918      372.48871      18502.376      19283.626     -479.1797     
   4075000   281.15606      368.00525      18500.478      19270.758     -550.29741    
   4076000   281.32237      381.69103      18482.7        19266.904     -65.802143    
   4077000   289.06478      384.77313      18478.46       19276.824     -75.035505    
   4078000   302.82352      376.39495      18503.802      19313.473     -226.2825     
   4079000   294.66959      371.24713      18528.832      19321.689     -611.75376    
   4080000   305.33179      383.11435      18510.26       19330.239     -92.093618    
   4081000   298.48362      386.86569      18515.023      19328.956     -95.322924    
   4082000   291.62063      375.91624      18535.959      19329.123     -396.17412    
   4083000   308.43861      364.20032      18513.944      19319.455     -826.95657    
   4084000   303.71905      383.86471      18493.411      19311.833     -34.678927    
   4085000   272.91779      381.77876      18516.131      19288.397     -234.58282    
   4086000   292.34875      370.14538      18506.778      19295.213     -566.69792    
   4087000   296.16346      372.93836      18496.213      19292.899     -521.49691    
   4088000   295.04162      379.47969      18497.628      19299.249     -299.74095    
   4089000   310.82701      381.46529      18490.503      19316.696     -120.36559    
   4090000   303.6108       373.29548      18528.922      19336.621     -532.37233    
   4091000   315.34711      371.44707      18523.285      19345.927     -463.1865     
   4092000   318.23382      378.83451      18511.529      19345.689     -295.02224    
   4093000   307.19671      389.16205      18512.041      19340.737      12.588548    
   4094000   307.98932      363.10455      18530.977      19334.75      -905.73301    
   4095000   312.69532      375.69514      18499.419      19322.515     -360.71029    
   4096000   298.22032      384.34132      18498.891      19309.922     -31.505431    
   4097000   298.22497      373.36728      18507.942      19308.006     -411.69111    
   4098000   306.18185      370.80115      18500.12       19309.003     -548.35902    
   4099000   307.11657      372.41072      18502.72       19314.549     -307.83423    
   4100000   289.92392      379.67224      18517.235      19311.727     -162.30304    
Loop time of 12.8881 on 4 procs for 50000 steps with 481 atoms

Performance: 16.760 ns/day, 1.432 hours/ns, 3879.549 timesteps/s, 1.866 Matom-step/s
98.8% CPU use with 4 MPI tasks x no OpenMP threads

MPI task timing breakdown:
Section |  min time  |  avg time  |  max time  |%varavg| %total
---------------------------------------------------------------
Pair    | 1.952      | 3.1813     | 4.2694     |  46.6 | 24.68
Bond    | 4.0256     | 4.4693     | 4.9679     |  17.7 | 34.68
Neigh   | 0.13274    | 0.13282    | 0.1329     |   0.0 |  1.03
Comm    | 2.937      | 4.5209     | 6.1964     |  54.3 | 35.08
Output  | 0.0016916  | 0.0025467  | 0.0028607  |   1.0 |  0.02
Modify  | 0.38485    | 0.39012    | 0.3942     |   0.5 |  3.03
Other   |            | 0.1911     |            |       |  1.48

Nlocal:         120.25 ave         129 max         111 min
Histogram: 2 0 0 0 0 0 0 0 0 2
Nghost:        4165.25 ave        4196 max        4135 min
Histogram: 1 0 1 0 0 0 0 1 0 1
Neighs:              0 ave           0 max           0 min
Histogram: 4 0 0 0 0 0 0 0 0 0

Total # of neighbors = 0
Ave neighs/atom = 0
Ave special neighs/atom = 15.567568
Neighbor list builds = 144
Dangerous builds = 0
unfix           myat1
next            cpt
jump            SELF loop
variable        zdes equal  -15+0.30*(${cpt}-1)
variable        zdes equal  -15+0.30*(69-1)
fix             mytth2 H2 spring tether ${k1} 5 5 ${zdes} 0
fix             mytth2 H2 spring tether 0.5 5 5 ${zdes} 0
fix             mytth2 H2 spring tether 0.5 5 5 5.4 0
run             10000
Generated 0 of 1 mixed pair_coeff terms from geometric mixing rule
Per MPI rank memory allocation (min/avg/max) = 14.61 | 14.61 | 14.61 Mbytes
   Step          Temp          E_pair         E_mol          TotEng         Press     
   4100000   289.92392      379.67224      18517.235      19311.727     -162.30304    
   4101000   309.21336      375.11844      18509.26       19326.798     -296.68509    
   4102000   291.18654      367.7017       18541.119      19325.447     -755.75105    
   4103000   315.16781      376.353        18503.618      19330.91      -319.80057    
   4104000   286.56371      385.62473      18536.781      19332.418      22.195863    
   4105000   286.87941      371.49347      18552.472      19334.429     -551.66934    
   4106000   310.58459      370.47762      18524.494      19339.352     -584.32878    
   4107000   300.34362      385.49055      18510.831      19326.05      -82.302819    
   4108000   307.00362      377.72127      18494.403      19311.382     -171.82891    
   4109000   306.99792      368.04168      18492.093      19299.384     -481.34826    
   4110000   297.31098      375.11164      18489.52       19290.021     -430.85971    
Loop time of 2.49538 on 4 procs for 10000 steps with 481 atoms

Performance: 17.312 ns/day, 1.386 hours/ns, 4007.411 timesteps/s, 1.928 Matom-step/s
99.7% CPU use with 4 MPI tasks x no OpenMP threads

MPI task timing breakdown:
Section |  min time  |  avg time  |  max time  |%varavg| %total
---------------------------------------------------------------
Pair    | 0.38086    | 0.62433    | 0.83777    |  20.7 | 25.02
Bond    | 0.79046    | 0.88128    | 0.98431    |   8.2 | 35.32
Neigh   | 0.027229   | 0.027231   | 0.027234   |   0.0 |  1.09
Comm    | 0.54413    | 0.86007    | 1.1947     |  24.9 | 34.47
Output  | 0.00024342 | 0.00027023 | 0.00033788 |   0.0 |  0.01
Modify  | 0.066444   | 0.067237   | 0.06797    |   0.2 |  2.69
Other   |            | 0.03496    |            |       |  1.40

Nlocal:         120.25 ave         130 max         111 min
Histogram: 2 0 0 0 0 0 0 0 1 1
Nghost:         4164.5 ave        4193 max        4136 min
Histogram: 1 1 0 0 0 0 0 0 1 1
Neighs:              0 ave           0 max           0 min
Histogram: 4 0 0 0 0 0 0 0 0 0

Total # of neighbors = 0
Ave neighs/atom = 0
Ave special neighs/atom = 15.567568
Neighbor list builds = 30
Dangerous builds = 0
fix             myat1 all ave/time 100 10 1000 v_zave v_zdes file simulation_data/abpot/${cpt}.dat
fix             myat1 all ave/time 100 10 1000 v_zave v_zdes file simulation_data/abpot/69.dat
run             50000
Generated 0 of 1 mixed pair_coeff terms from geometric mixing rule
Per MPI rank memory allocation (min/avg/max) = 14.61 | 14.61 | 14.61 Mbytes
   Step          Temp          E_pair         E_mol          TotEng         Press     
   4110000   297.31098      375.11164      18489.52       19290.021     -430.85971    
   4111000   283.58653      379.1782       18498.455      19283.386     -234.44415    
   4112000   295.8069       382.33601      18490.85       19296.424     -237.82272    
   4113000   299.12978      366.12503      18518.864      19312.981     -618.59863    
   4114000   307.41386      370.32932      18523.793      19333.967     -769.24333    
   4115000   305.84315      389.38893      18516.166      19343.152      52.747555    
   4116000   308.06837      375.75984      18524.767      19341.307     -319.68398    
   4117000   315.07755      366.23516      18527.45       19344.494     -749.99588    
   4118000   310.15705      373.0427       18517.802      19334.614     -484.49032    
   4119000   290.59827      388.92447      18516.56       19321.269      174.54999    
   4120000   316.53999      374.47982      18492.06       19319.442     -311.47688    
   4121000   312.1282       366.97206      18494.664      19308.225     -568.90786    
   4122000   278.39737      376.54497      18518.289      19293.162     -336.63435    
   4123000   303.72568      383.59725      18476.141      19294.305     -46.440217    
   4124000   290.45063      376.09473      18508.6        19300.268     -404.20868    
   4125000   300.54676      364.35145      18527.779      19322.15      -663.23474    
   4126000   314.58125      383.20892      18519.121      19352.429     -106.39398    
   4127000   325.07502      380.48702      18509.781      19355.382     -138.10637    
   4128000   318.02637      373.60385      18520.767      19349.399     -417.0532     
   4129000   306.69815      370.24065      18533.181      19342.242     -524.32187    
   4130000   293.58363      377.30602      18520.889      19318.251     -236.55651    
   4131000   310.84228      379.75515      18492.455      19316.959     -197.66006    
   4132000   292.83105      370.94662      18516.766      19306.692     -573.88195    
   4133000   289.78685      371.28614      18516.533      19302.443     -408.17448    
   4134000   295.85829      377.79832      18497.023      19298.132     -333.76517    
   4135000   290.28648      377.24211      18509.657      19302.238     -226.24051    
   4136000   290.34572      368.74401      18528.7        19312.868     -614.92274    
   4137000   317.89203      376.75572      18495.092      19326.684     -373.1553     
   4138000   299.03942      384.15362      18532.177      19344.193     -103.83991    
   4139000   313.27847      377.74254      18546.226      19372.204     -235.70084    
   4140000   315.55545      374.42316      18558.972      19384.889     -434.09395    
   4141000   314.43685      381.12987      18532.854      19363.876     -324.30501    
   4142000   329.61427      384.74748      18494.904      19351.26       62.842109    
   4143000   309.84179      375.68659      18520.361      19339.366     -392.761      
   4144000   296.70613      371.21434      18532.787      19328.525     -573.33506    
   4145000   303.43806      382.61589      18501.763      19318.534     -149.64185    
   4146000   301.50365      383.05932      18492.675      19307.122     -29.100768    
   4147000   295.90776      369.85336      18502.344      19295.579     -624.4356     
   4148000   294.23912      370.96472      18509.634      19301.593     -386.29287    
   4149000   286.34925      385.90975      18502.792      19298.407     -43.385278    
   4150000   299.50923      374.96415      18514.641      19318.14      -274.07409    
   4151000   309.7633       372.17061      18533.483      19348.859     -523.51495    
   4152000   314.61969      374.76949      18526.253      19351.177     -634.78024    
   4153000   308.7921       383.05964      18530.021      19354.897     -68.036018    
   4154000   312.55151      377.826        18524.216      19349.237     -248.95957    
   4155000   298.73066      367.26012      18542.809      19337.49      -598.71026    
   4156000   306.13517      374.26441      18512.953      19325.232     -422.25207    
   4157000   300.29312      385.07328      18505.057      19319.786      11.262711    
   4158000   299.77505      376.73412      18514.837      19320.486     -325.46896    
   4159000   288.70028      371.04195      18524.652      19308.764     -499.59828    
   4160000   298.88647      374.75373      18502.748      19305.145     -426.04305    
Loop time of 12.4333 on 4 procs for 50000 steps with 481 atoms

Performance: 17.373 ns/day, 1.381 hours/ns, 4021.446 timesteps/s, 1.934 Matom-step/s
99.6% CPU use with 4 MPI tasks x no OpenMP threads

MPI task timing breakdown:
Section |  min time  |  avg time  |  max time  |%varavg| %total
---------------------------------------------------------------
Pair    | 1.9265     | 3.1209     | 4.1752     |  45.5 | 25.10
Bond    | 3.981      | 4.4084     | 4.8907     |  17.4 | 35.46
Neigh   | 0.1274     | 0.12743    | 0.12746    |   0.0 |  1.02
Comm    | 2.7246     | 4.2536     | 5.8828     |  54.3 | 34.21
Output  | 0.001513   | 0.0020837  | 0.0023095  |   0.7 |  0.02
Modify  | 0.33591    | 0.34583    | 0.35461    |   1.3 |  2.78
Other   |            | 0.175      |            |       |  1.41

Nlocal:         120.25 ave         127 max         114 min
Histogram: 1 0 1 0 0 0 1 0 0 1
Nghost:         4167.5 ave        4196 max        4137 min
Histogram: 1 0 0 1 0 0 1 0 0 1
Neighs:              0 ave           0 max           0 min
Histogram: 4 0 0 0 0 0 0 0 0 0

Total # of neighbors = 0
Ave neighs/atom = 0
Ave special neighs/atom = 15.567568
Neighbor list builds = 141
Dangerous builds = 0
unfix           myat1
next            cpt
jump            SELF loop
variable        zdes equal  -15+0.30*(${cpt}-1)
variable        zdes equal  -15+0.30*(70-1)
fix             mytth2 H2 spring tether ${k1} 5 5 ${zdes} 0
fix             mytth2 H2 spring tether 0.5 5 5 ${zdes} 0
fix             mytth2 H2 spring tether 0.5 5 5 5.7 0
run             10000
Generated 0 of 1 mixed pair_coeff terms from geometric mixing rule
Per MPI rank memory allocation (min/avg/max) = 14.61 | 14.61 | 14.61 Mbytes
   Step          Temp          E_pair         E_mol          TotEng         Press     
   4160000   298.88647      374.75373      18502.748      19305.145     -426.04305    
   4161000   300.57549      383.44344      18493.373      19306.877     -143.8677     
   4162000   303.66132      373.62387      18506.813      19314.912     -422.9418     
   4163000   305.12181      368.671        18518.548      19323.784     -641.03771    
   4164000   303.22972      378.25779      18532.771      19344.886     -213.88797    
   4165000   312.10651      385.36884      18528.157      19360.085     -91.888448    
   4166000   331.39793      373.23171      18518.137      19365.529     -481.74249    
   4167000   324.93093      367.39313      18534.011      19366.311     -555.01757    
   4168000   304.90773      378.83321      18532.129      19347.221     -164.08336    
   4169000   296.91738      377.18574      18526.69       19328.702     -367.72528    
   4170000   298.25479      373.22567      18518.798      19318.764     -387.46485    
Loop time of 2.48678 on 4 procs for 10000 steps with 481 atoms

Performance: 17.372 ns/day, 1.382 hours/ns, 4021.257 timesteps/s, 1.934 Matom-step/s
99.6% CPU use with 4 MPI tasks x no OpenMP threads

MPI task timing breakdown:
Section |  min time  |  avg time  |  max time  |%varavg| %total
---------------------------------------------------------------
Pair    | 0.38567    | 0.62664    | 0.83504    |  20.3 | 25.20
Bond    | 0.7928     | 0.88132    | 0.97861    |   7.9 | 35.44
Neigh   | 0.024553   | 0.024565   | 0.024575   |   0.0 |  0.99
Comm    | 0.54664    | 0.85014    | 1.1817     |  24.4 | 34.19
Output  | 0.00022933 | 0.00025441 | 0.00032058 |   0.0 |  0.01
Modify  | 0.066479   | 0.068983   | 0.071424   |   0.8 |  2.77
Other   |            | 0.03487    |            |       |  1.40

Nlocal:         120.25 ave         130 max         111 min
Histogram: 2 0 0 0 0 0 0 0 0 2
Nghost:         4161.5 ave        4186 max        4138 min
Histogram: 2 0 0 0 0 0 0 0 0 2
Neighs:              0 ave           0 max           0 min
Histogram: 4 0 0 0 0 0 0 0 0 0

Total # of neighbors = 0
Ave neighs/atom = 0
Ave special neighs/atom = 15.567568
Neighbor list builds = 27
Dangerous builds = 0
fix             myat1 all ave/time 100 10 1000 v_zave v_zdes file simulation_data/abpot/${cpt}.dat
fix             myat1 all ave/time 100 10 1000 v_zave v_zdes file simulation_data/abpot/70.dat
run             50000
Generated 0 of 1 mixed pair_coeff terms from geometric mixing rule
Per MPI rank memory allocation (min/avg/max) = 14.61 | 14.61 | 14.61 Mbytes
   Step          Temp          E_pair         E_mol          TotEng         Press     
   4170000   298.25479      373.22567      18518.798      19318.764     -387.46485    
   4171000   305.13758      371.14581      18510.621      19318.355     -530.06615    
   4172000   295.29286      375.08718      18513.551      19311.14      -302.01122    
   4173000   296.87615      379.04529      18506.618      19310.43      -224.30585    
   4174000   287.36109      370.59854      18536.31       19318.062     -613.01064    
   4175000   297.65995      371.87086      18528.722      19326.481     -512.80931    
   4176000   306.06483      384.80717      18512.681      19335.402      53.308654    
   4177000   327.22251      373.62665      18502.15       19343.963     -438.58532    
   4178000   324.31248      371.96654      18515.478      19351.467     -633.1308     
   4179000   298.60278      380.25096      18549.945      19357.433     -102.79621    
   4180000   300.64505      383.50665      18537.23       19350.896     -178.80298    
   4181000   322.40491      374.95409      18503.43       19339.677     -291.21755    
   4182000   303.83842      370.41899      18515.065      19320.212     -494.33291    
   4183000   302.53869      379.25419      18494.313      19306.436     -228.15558    
   4184000   282.51802      382.63856      18510.407      19297.27      -155.62106    
   4185000   299.51414      372.49703      18496.037      19297.076     -353.38246    
   4186000   293.0461       363.52017      18521.437      19304.244     -735.95974    
   4187000   293.87533      384.32962      18507.751      19312.554      23.037339    
   4188000   288.83985      383.06757      18540.845      19337.182     -116.31109    
   4189000   302.37491      363.87531      18548.362      19344.871     -673.91253    
   4190000   301.52157      373.02054      18541.207      19345.641     -447.82065    
   4191000   306.98249      383.23151      18522.861      19345.32       15.93918     
   4192000   298.33755      376.21518      18532.327      19335.4       -256.07605    
   4193000   297.12022      368.26661      18539.162      19332.545     -561.35546    
   4194000   295.48474      369.36096      18538.44       19330.577     -591.95155    
   4195000   284.36856      388.66421      18520.586      19316.121      74.075936    
   4196000   298.67909      380.49396      18497.872      19305.713     -204.00895    
   4197000   287.45477      363.66473      18528.872      19303.823     -860.69036    
   4198000   281.93945      378.84483      18510.071      19292.311     -161.90348    
   4199000   284.59026      383.15976      18485.764      19276.112      46.939162    
   4200000   280.94824      374.26936      18491.844      19268.091     -574.91296    
   4201000   288.9931       371.25144      18491.384      19276.124     -434.7836     
   4202000   280.10569      373.86405      18506.727      19281.363     -545.15095    
   4203000   303.7437       387.9985       18474.106      19296.698      93.251168    
   4204000   301.44247      374.90334      18516.81       19323.014     -466.18057    
   4205000   305.57303      368.77586      18517.261      19323.248     -807.60562    
   4206000   310.886        384.69442      18503.758      19333.264     -27.994367    
   4207000   321.43588      381.547        18491.547      19333.001     -234.77322    
   4208000   304.97457      372.97722      18515.632      19324.963     -571.64656    
   4209000   303.19837      373.46452      18509.149      19316.426     -404.41953    
   4210000   296.01093      377.97665      18492.531      19294.037     -258.69799    
   4211000   280.70373      382.04128      18496.719      19280.388     -114.67471    
   4212000   285.04536      367.1683       18498.687      19273.695     -667.47905    
   4213000   288.16993      373.25657      18497.898      19283.465     -458.06857    
   4214000   301.35653      380.51891      18482.68       19294.377     -94.314852    
   4215000   297.9976       379.4281       18509.112      19314.912     -264.60858    
   4216000   299.12632      369.3378       18524.905      19322.229     -652.3733     
   4217000   301.81778      374.3465       18524.187      19330.371     -470.03208    
   4218000   302.37845      390.27717      18499.465      19322.382      161.31817    
   4219000   307.78749      371.57965      18508.809      19320.768     -543.74735    
   4220000   294.33253      373.38561      18525.631      19320.144     -477.09056    
Loop time of 12.4709 on 4 procs for 50000 steps with 481 atoms

Performance: 17.320 ns/day, 1.386 hours/ns, 4009.332 timesteps/s, 1.928 Matom-step/s
99.5% CPU use with 4 MPI tasks x no OpenMP threads

MPI task timing breakdown:
Section |  min time  |  avg time  |  max time  |%varavg| %total
---------------------------------------------------------------
Pair    | 1.9228     | 3.1265     | 4.177      |  45.6 | 25.07
Bond    | 3.9741     | 4.4112     | 4.9042     |  17.7 | 35.37
Neigh   | 0.12991    | 0.12996    | 0.13001    |   0.0 |  1.04
Comm    | 2.7315     | 4.28       | 5.9146     |  54.5 | 34.32
Output  | 0.0015046  | 0.0021454  | 0.0023832  |   0.8 |  0.02
Modify  | 0.33733    | 0.34427    | 0.35234    |   1.0 |  2.76
Other   |            | 0.1768     |            |       |  1.42

Nlocal:         120.25 ave         127 max         114 min
Histogram: 1 0 1 0 0 0 1 0 0 1
Nghost:         4164.5 ave        4192 max        4135 min
Histogram: 1 0 0 1 0 0 0 1 0 1
Neighs:              0 ave           0 max           0 min
Histogram: 4 0 0 0 0 0 0 0 0 0

Total # of neighbors = 0
Ave neighs/atom = 0
Ave special neighs/atom = 15.567568
Neighbor list builds = 143
Dangerous builds = 0
unfix           myat1
next            cpt
jump            SELF loop
variable        zdes equal  -15+0.30*(${cpt}-1)
variable        zdes equal  -15+0.30*(71-1)
fix             mytth2 H2 spring tether ${k1} 5 5 ${zdes} 0
fix             mytth2 H2 spring tether 0.5 5 5 ${zdes} 0
fix             mytth2 H2 spring tether 0.5 5 5 6 0
run             10000
Generated 0 of 1 mixed pair_coeff terms from geometric mixing rule
Per MPI rank memory allocation (min/avg/max) = 14.61 | 14.61 | 14.61 Mbytes
   Step          Temp          E_pair         E_mol          TotEng         Press     
   4220000   294.33253      373.38561      18525.631      19320.144     -477.09056    
   4221000   293.38657      378.03227      18506.074      19303.88      -381.85777    
   4222000   293.59072      385.44181      18491.633      19297.142      23.796157    
   4223000   287.25192      370.74791      18517.731      19299.476     -519.40673    
   4224000   288.62676      363.69231      18519.502      19296.158     -716.91695    
   4225000   290.50309      387.30976      18491.112      19294.07      -10.866544    
   4226000   298.53607      379.75566      18503.994      19310.892     -127.31078    
   4227000   312.68059      365.70122      18523.117      19336.198     -803.30886    
   4228000   308.09207      373.84226      18533.692      19348.349     -434.04559    
   4229000   311.96367      380.51467      18517.421      19344.289     -138.73692    
   4230000   310.13426      379.68286      18515.795      19339.214     -325.3808     
Loop time of 2.56789 on 4 procs for 10000 steps with 481 atoms

Performance: 16.823 ns/day, 1.427 hours/ns, 3894.250 timesteps/s, 1.873 Matom-step/s
98.7% CPU use with 4 MPI tasks x no OpenMP threads

MPI task timing breakdown:
Section |  min time  |  avg time  |  max time  |%varavg| %total
---------------------------------------------------------------
Pair    | 0.39054    | 0.63683    | 0.84577    |  20.4 | 24.80
Bond    | 0.80465    | 0.89435    | 0.99149    |   8.0 | 34.83
Neigh   | 0.028266   | 0.028282   | 0.028291   |   0.0 |  1.10
Comm    | 0.59033    | 0.89285    | 1.2319     |  24.2 | 34.77
Output  | 0.00029942 | 0.00033516 | 0.00043158 |   0.0 |  0.01
Modify  | 0.073233   | 0.07703    | 0.080724   |   1.2 |  3.00
Other   |            | 0.0382     |            |       |  1.49

Nlocal:         120.25 ave         128 max         113 min
Histogram: 2 0 0 0 0 0 0 0 1 1
Nghost:         4170.5 ave        4195 max        4146 min
Histogram: 1 1 0 0 0 0 0 0 1 1
Neighs:              0 ave           0 max           0 min
Histogram: 4 0 0 0 0 0 0 0 0 0

Total # of neighbors = 0
Ave neighs/atom = 0
Ave special neighs/atom = 15.567568
Neighbor list builds = 31
Dangerous builds = 0
fix             myat1 all ave/time 100 10 1000 v_zave v_zdes file simulation_data/abpot/${cpt}.dat
fix             myat1 all ave/time 100 10 1000 v_zave v_zdes file simulation_data/abpot/71.dat
run             50000
Generated 0 of 1 mixed pair_coeff terms from geometric mixing rule
Per MPI rank memory allocation (min/avg/max) = 14.61 | 14.61 | 14.61 Mbytes
   Step          Temp          E_pair         E_mol          TotEng         Press     
   4230000   310.13426      379.68286      18515.795      19339.214     -325.3808     
   4231000   298.93486      369.14085      18538.342      19335.196     -515.89195    
   4232000   310.08592      371.10521      18506.768      19321.54      -438.70699    
   4233000   287.61309      383.68724      18506.55       19301.751     -100.36484    
   4234000   289.4805       378.352        18517.005      19309.543     -356.60702    
   4235000   299.70835      365.83453      18514.05       19308.704     -715.98094    
   4236000   302.46178      372.12709      18499.511      19304.397     -401.23875    
   4237000   300.36868      383.75587      18500.742      19314.262     -87.534746    
   4238000   289.3845       372.84996      18527.395      19314.293     -325.85281    
   4239000   300.20707      367.94732      18528.563      19326.044     -677.65151    
   4240000   299.37845      378.80377      18520.008      19327.159     -318.35848    
   4241000   319.70881      381.64862      18488.091      19327.175     -88.742485    
   4242000   308.1378       374.24427      18533.255      19348.38      -448.52463    
   4243000   303.47418      368.07585      18550.341      19352.625     -696.95236    
   4244000   319.41602      378.39464      18515.617      19351.029     -275.67389    
   4245000   300.50031      387.12498      18523.304      19340.382     -82.501669    
   4246000   298.13092      373.02609      18522.046      19321.634     -485.00301    
   4247000   291.16858      368.43151      18523.494      19308.526     -654.31464    
   4248000   297.92808      382.17501      18491.354      19299.802     -84.10006     
   4249000   303.07512      377.27582      18484.928      19295.84      -275.08437    
   4250000   299.70452      369.85099      18506.625      19305.29      -457.48224    
   4251000   303.79         368.05917      18500.833      19303.551     -589.93455    
   4252000   299.16704      381.96356      18499.184      19309.192     -155.40713    
   4253000   304.67041      386.51257      18516.721      19339.152     -70.840064    
   4254000   315.64918      366.69144      18544.29       19362.609     -750.48634    
   4255000   303.63493      377.49372      18553.831      19365.762     -253.83246    
   4256000   330.41499      386.09393      18487.762      19346.61       79.30776     
   4257000   318.77412      378.45818      18498.913      19333.469     -206.58542    
   4258000   309.24391      370.53612      18511.591      19324.59      -449.77071    
   4259000   304.06516      374.1089       18508.407      19317.569     -543.62362    
   4260000   295.14387      387.96021      18500.697      19310.946      92.903001    
   4261000   304.57233      372.7347       18494.687      19303.2       -474.13478    
   4262000   299.30464      373.61523      18502.076      19303.933     -461.14228    
   4263000   284.21065      376.3315       18512.16       19295.137     -454.07389    
   4264000   287.33922      384.17485      18494.642      19289.938      37.58491     
   4265000   306.36266      375.36276      18484.819      19298.522     -439.54533    
   4266000   293.68102      366.75591      18521.964      19308.915     -607.2329     
   4267000   304.87832      384.13772      18495.577      19315.931     -161.86873    
   4268000   302.88107      381.46907      18520.155      19334.983     -215.25515    
   4269000   298.97158      372.28469      18541.331      19341.381     -688.98314    
   4270000   303.50945      373.69396      18529.254      19337.206     -410.22686    
   4271000   289.5386       382.61009      18529.654      19326.533     -254.72019    
   4272000   292.80387      378.9207       18515.416      19313.277     -188.22141    
   4273000   298.41563      372.18595      18499.256      19298.412     -481.67964    
   4274000   292.73581      370.94728      18499.634      19289.425     -497.55754    
   4275000   286.08423      385.51118      18486.534      19281.371     -36.263543    
   4276000   298.43779      376.60574      18483.929      19287.536     -272.07681    
   4277000   281.05162      366.03685      18523.916      19292.079     -686.012      
   4278000   299.46339      375.19579      18492.046      19295.711     -303.69132    
   4279000   307.59215      385.80845      18482.261      19308.169     -53.383986    
   4280000   306.56537      373.48976      18502.078      19314.198     -380.76644    
Loop time of 12.5767 on 4 procs for 50000 steps with 481 atoms

Performance: 17.175 ns/day, 1.397 hours/ns, 3975.598 timesteps/s, 1.912 Matom-step/s
99.1% CPU use with 4 MPI tasks x no OpenMP threads

MPI task timing breakdown:
Section |  min time  |  avg time  |  max time  |%varavg| %total
---------------------------------------------------------------
Pair    | 1.9337     | 3.1386     | 4.1405     |  44.8 | 24.96
Bond    | 4.0008     | 4.4369     | 4.9248     |  17.8 | 35.28
Neigh   | 0.13635    | 0.13642    | 0.13649    |   0.0 |  1.08
Comm    | 2.8267     | 4.3156     | 5.9573     |  53.6 | 34.31
Output  | 0.0016204  | 0.002437   | 0.0027347  |   1.0 |  0.02
Modify  | 0.35973    | 0.36305    | 0.36536    |   0.4 |  2.89
Other   |            | 0.1838     |            |       |  1.46

Nlocal:         120.25 ave         128 max         113 min
Histogram: 1 0 1 0 0 0 0 1 0 1
Nghost:         4176.5 ave        4197 max        4151 min
Histogram: 1 0 1 0 0 0 0 0 0 2
Neighs:              0 ave           0 max           0 min
Histogram: 4 0 0 0 0 0 0 0 0 0

Total # of neighbors = 0
Ave neighs/atom = 0
Ave special neighs/atom = 15.567568
Neighbor list builds = 149
Dangerous builds = 0
unfix           myat1
next            cpt
jump            SELF loop
variable        zdes equal  -15+0.30*(${cpt}-1)
variable        zdes equal  -15+0.30*(72-1)
fix             mytth2 H2 spring tether ${k1} 5 5 ${zdes} 0
fix             mytth2 H2 spring tether 0.5 5 5 ${zdes} 0
fix             mytth2 H2 spring tether 0.5 5 5 6.3 0
run             10000
Generated 0 of 1 mixed pair_coeff terms from geometric mixing rule
Per MPI rank memory allocation (min/avg/max) = 14.61 | 14.61 | 14.61 Mbytes
   Step          Temp          E_pair         E_mol          TotEng         Press     
   4280000   306.56537      373.48976      18502.078      19314.198     -380.76644    
   4281000   295.71029      368.67236      18526.932      19318.704     -762.3224     
   4282000   302.08802      379.33718      18509.268      19320.83      -378.64423    
   4283000   293.65898      382.80569      18504.849      19307.819     -185.02101    
   4284000   299.83245      375.86801      18522.176      19327.041     -300.3951     
   4285000   289.23636      369.40971      18550.338      19333.584     -763.91915    
   4286000   310.8523       377.29301      18508.905      19330.962     -309.45936    
   4287000   309.10361      390.02243      18503.779      19336.063     -27.361921    
   4288000   309.87423      373.80013      18514.409      19331.573     -498.95947    
   4289000   301.59984      365.64176      18525.572      19322.739     -678.92317    
   4290000   301.56974      382.65337      18488.358      19302.494     -116.21041    
Loop time of 2.54023 on 4 procs for 10000 steps with 481 atoms

Performance: 17.006 ns/day, 1.411 hours/ns, 3936.654 timesteps/s, 1.894 Matom-step/s
98.9% CPU use with 4 MPI tasks x no OpenMP threads

MPI task timing breakdown:
Section |  min time  |  avg time  |  max time  |%varavg| %total
---------------------------------------------------------------
Pair    | 0.38804    | 0.63062    | 0.83798    |  20.4 | 24.83
Bond    | 0.80595    | 0.89252    | 0.99316    |   7.9 | 35.14
Neigh   | 0.026538   | 0.026552   | 0.026567   |   0.0 |  1.05
Comm    | 0.57248    | 0.87977    | 1.2097     |  24.1 | 34.63
Output  | 0.00029096 | 0.00032123 | 0.00039979 |   0.0 |  0.01
Modify  | 0.072293   | 0.073387   | 0.074421   |   0.3 |  2.89
Other   |            | 0.03706    |            |       |  1.46

Nlocal:         120.25 ave         129 max         112 min
Histogram: 1 1 0 0 0 0 0 0 1 1
Nghost:         4182.5 ave        4209 max        4155 min
Histogram: 1 0 1 0 0 0 0 0 1 1
Neighs:              0 ave           0 max           0 min
Histogram: 4 0 0 0 0 0 0 0 0 0

Total # of neighbors = 0
Ave neighs/atom = 0
Ave special neighs/atom = 15.567568
Neighbor list builds = 29
Dangerous builds = 0
fix             myat1 all ave/time 100 10 1000 v_zave v_zdes file simulation_data/abpot/${cpt}.dat
fix             myat1 all ave/time 100 10 1000 v_zave v_zdes file simulation_data/abpot/72.dat
run             50000
Generated 0 of 1 mixed pair_coeff terms from geometric mixing rule
Per MPI rank memory allocation (min/avg/max) = 14.61 | 14.61 | 14.61 Mbytes
   Step          Temp          E_pair         E_mol          TotEng         Press     
   4290000   301.56974      382.65337      18488.358      19302.494     -116.21041    
   4291000   288.88934      381.25029      18491.385      19285.975     -137.11822    
   4292000   281.3926       372.41133      18512.836      19287.861     -501.91401    
   4293000   293.81122      367.17376      18506.604      19294.159     -555.241      
   4294000   293.24662      384.2359       18496.164      19299.974     -140.43107    
   4295000   302.52034      380.1229       18508.611      19321.577     -147.47202    
   4296000   306.76055      372.0901       18533.041      19344.04      -653.13668    
   4297000   317.87153      370.22623      18523.03       19348.063     -564.06373    
   4298000   317.86585      381.92377      18503.935      19340.657     -150.07954    
   4299000   297.99948      383.12025      18529.128      19338.622     -93.451258    
   4300000   295.3938       367.29452      18538.631      19328.572     -730.1196     
   4301000   294.05039      372.81358      18522.527      19316.065     -569.26816    
   4302000   295.25406      382.43328      18499.423      19304.303     -64.589208    
   4303000   297.98013      371.43589      18496.89       19294.673     -505.07872    
   4304000   297.40787      372.5815       18507.663      19305.773     -457.51009    
   4305000   282.2178       378.93346      18525.241      19307.968     -261.20338    
   4306000   295.49761      384.88178      18503.441      19311.117     -12.870823    
   4307000   315.47073      374.06369      18501.871      19327.306     -343.286      
   4308000   298.81906      367.79595      18526.181      19321.523     -594.56671    
   4309000   309.08855      383.06644      18494.41       19319.717     -153.48181    
   4310000   295.41708      388.5281       18509.551      19320.759      10.251928    
   4311000   299.61319      367.65499      18531.636      19327.974     -689.48144    
   4312000   305.00155      371.67903      18519.241      19327.313     -588.14218    
   4313000   301.39404      382.92652      18506.167      19320.325     -175.89581    
   4314000   289.86541      376.76011      18524.094      19315.59      -429.69279    
   4315000   299.40367      372.02553      18516.732      19317.141     -371.30946    
   4316000   298.38698      366.22753      18515.263      19308.419     -725.23331    
   4317000   287.05444      379.91627      18507.318      19297.949     -198.95222    
   4318000   280.75262      380.74765      18509.81       19292.255     -377.91297    
   4319000   301.52425      364.8699       18499.34       19295.628     -631.91663    
   4320000   275.73875      372.33116      18531.001      19297.857     -529.72806    
   4321000   306.96815      381.27147      18496.366      19316.844     -110.80359    
   4322000   299.17536      381.38322      18521.833      19331.273     -327.49237    
   4323000   295.62933      371.03475      18549.759      19343.777     -561.77774    
   4324000   317.38479      376.03318      18514.939      19345.083     -406.21193    
   4325000   294.81528      388.72578      18532.959      19343.503      71.005329    
   4326000   298.27935      374.20524      18531.504      19332.484     -358.07509    
   4327000   311.07068      369.06289      18502.271      19316.411     -629.41041    
   4328000   293.16018      377.95584      18494.227      19291.633     -317.46521    
   4329000   269.46126      386.20972      18509.709      19281.461      31.256508    
   4330000   290.27688      369.68899      18498.56       19283.574     -720.12006    
   4331000   288.23504      371.43359      18506.346      19290.183     -433.58407    
   4332000   291.10892      375.04789      18507.822      19299.386     -288.0037     
   4333000   301.74316      378.18139      18493.353      19303.265     -284.91915    
   4334000   296.48934      374.60338      18523.743      19322.56      -476.37507    
   4335000   293.55041      365.31815      18546.032      19331.358     -809.67973    
   4336000   301.53129      384.41927      18523.411      19339.258     -110.72958    
   4337000   308.94187      380.62054      18506.499      19329.15      -144.81897    
   4338000   308.1199       369.06797      18519.453      19329.376     -665.22959    
   4339000   293.21613      376.624        18513.183      19309.337     -395.07217    
   4340000   285.505        380.6484       18492.432      19281.578     -237.00126    
Loop time of 12.8587 on 4 procs for 50000 steps with 481 atoms

Performance: 16.798 ns/day, 1.429 hours/ns, 3888.418 timesteps/s, 1.870 Matom-step/s
98.3% CPU use with 4 MPI tasks x no OpenMP threads

MPI task timing breakdown:
Section |  min time  |  avg time  |  max time  |%varavg| %total
---------------------------------------------------------------
Pair    | 1.9464     | 3.1784     | 4.1972     |  45.4 | 24.72
Bond    | 4.0299     | 4.4819     | 4.9876     |  18.2 | 34.85
Neigh   | 0.13594    | 0.13614    | 0.13634    |   0.1 |  1.06
Comm    | 2.9575     | 4.4854     | 6.1659     |  53.8 | 34.88
Output  | 0.0017381  | 0.0026098  | 0.0029361  |   1.0 |  0.02
Modify  | 0.37705    | 0.38364    | 0.39061    |   0.8 |  2.98
Other   |            | 0.1906     |            |       |  1.48

Nlocal:         120.25 ave         129 max         111 min
Histogram: 1 0 1 0 0 0 0 0 1 1
Nghost:        4180.25 ave        4208 max        4156 min
Histogram: 2 0 0 0 0 0 0 1 0 1
Neighs:              0 ave           0 max           0 min
Histogram: 4 0 0 0 0 0 0 0 0 0

Total # of neighbors = 0
Ave neighs/atom = 0
Ave special neighs/atom = 15.567568
Neighbor list builds = 148
Dangerous builds = 0
unfix           myat1
next            cpt
jump            SELF loop
variable        zdes equal  -15+0.30*(${cpt}-1)
variable        zdes equal  -15+0.30*(73-1)
fix             mytth2 H2 spring tether ${k1} 5 5 ${zdes} 0
fix             mytth2 H2 spring tether 0.5 5 5 ${zdes} 0
fix             mytth2 H2 spring tether 0.5 5 5 6.6 0
run             10000
Generated 0 of 1 mixed pair_coeff terms from geometric mixing rule
Per MPI rank memory allocation (min/avg/max) = 14.61 | 14.61 | 14.61 Mbytes
   Step          Temp          E_pair         E_mol          TotEng         Press     
   4340000   285.505        380.6484       18492.432      19281.578     -237.00126    
   4341000   300.97241      378.95118      18471.176      19280.755     -70.061124    
   4342000   280.40485      369.00399      18512.74       19282.944     -767.43441    
   4343000   283.57541      373.91796      18508.237      19287.892     -528.78835    
   4344000   300.9115       385.18634      18486.942      19302.669      100.46503    
   4345000   293.86839      375.7743       18511.644      19307.882     -475.48165    
   4346000   306.17617      370.96743      18509.29       19318.33      -521.14537    
   4347000   306.39316      377.7051       18511.787      19327.876     -314.17174    
   4348000   293.42412      385.85319      18520.551      19326.232     -216.1278     
   4349000   301.19291      375.35332      18524.871      19331.168     -336.63394    
   4350000   305.12641      375.18378      18516.771      19328.527     -453.68373    
Loop time of 2.55796 on 4 procs for 10000 steps with 481 atoms

Performance: 16.888 ns/day, 1.421 hours/ns, 3909.370 timesteps/s, 1.880 Matom-step/s
98.8% CPU use with 4 MPI tasks x no OpenMP threads

MPI task timing breakdown:
Section |  min time  |  avg time  |  max time  |%varavg| %total
---------------------------------------------------------------
Pair    | 0.38965    | 0.63821    | 0.84137    |  20.8 | 24.95
Bond    | 0.80574    | 0.89442    | 0.99161    |   8.0 | 34.97
Neigh   | 0.028145   | 0.028161   | 0.028179   |   0.0 |  1.10
Comm    | 0.58448    | 0.88499    | 1.2223     |  24.1 | 34.60
Output  | 0.00028388 | 0.00031811 | 0.00040583 |   0.0 |  0.01
Modify  | 0.073675   | 0.074318   | 0.075031   |   0.2 |  2.91
Other   |            | 0.03754    |            |       |  1.47

Nlocal:         120.25 ave         130 max         111 min
Histogram: 1 0 1 0 0 0 0 1 0 1
Nghost:         4164.5 ave        4187 max        4140 min
Histogram: 1 1 0 0 0 0 0 0 0 2
Neighs:              0 ave           0 max           0 min
Histogram: 4 0 0 0 0 0 0 0 0 0

Total # of neighbors = 0
Ave neighs/atom = 0
Ave special neighs/atom = 15.567568
Neighbor list builds = 30
Dangerous builds = 0
fix             myat1 all ave/time 100 10 1000 v_zave v_zdes file simulation_data/abpot/${cpt}.dat
fix             myat1 all ave/time 100 10 1000 v_zave v_zdes file simulation_data/abpot/73.dat
run             50000
Generated 0 of 1 mixed pair_coeff terms from geometric mixing rule
Per MPI rank memory allocation (min/avg/max) = 14.61 | 14.61 | 14.61 Mbytes
   Step          Temp          E_pair         E_mol          TotEng         Press     
   4350000   305.12641      375.18378      18516.771      19328.527     -453.68373    
   4351000   282.91568      378.60074      18531.228      19314.621     -300.30099    
   4352000   303.88559      387.01965      18483.272      19305.087     -46.938759    
   4353000   303.65036      374.59033      18481.661      19290.711     -400.84887    
   4354000   273.79169      370.06353      18512.177      19273.979     -693.22313    
   4355000   274.33072      379.58056      18494.463      19266.553     -271.37744    
   4356000   303.72074      380.14029      18452.864      19267.565     -197.6413     
   4357000   291.93298      375.64629      18495.752      19289.093     -388.93542    
   4358000   297.45099      369.32408      18508.493      19303.407     -522.19872    
   4359000   288.03193      380.43033      18513.907      19306.45      -223.53259    
   4360000   282.4531       380.94082      18530.974      19316.046     -330.37321    
   4361000   310.65862      371.04154      18508.124      19323.653     -487.07839    
   4362000   306.83137      373.00339      18514.974      19326.988     -547.68264    
   4363000   297.32763      380.76036      18519.698      19325.872     -232.40819    
   4364000   310.62205      376.78318      18507.817      19329.035     -358.45642    
   4365000   294.93312      370.89216      18529.058      19321.937     -656.47471    
   4366000   327.8615       376.33793      18474.211      19319.649     -352.19342    
   4367000   310.75825      382.14477      18480.884      19307.659     -174.27963    
   4368000   290.44913      378.57336      18501.259      19295.404     -348.30845    
   4369000   296.69775      370.81975      18496.212      19291.544     -591.76238    
   4370000   287.07061      378.68041      18495.585      19285.003     -238.43984    
   4371000   288.55699      378.18729      18497.572      19288.623     -104.2773     
   4372000   297.68008      377.16926      18501.391      19304.477     -517.5558     
   4373000   303.88532      369.05601      18532.082      19335.934     -581.79838    
   4374000   300.05226      382.61976      18523.408      19335.339     -293.33891    
   4375000   310.27012      383.32839      18511.534      19338.793     -137.5271     
   4376000   309.26404      369.26414      18528.386      19340.142     -507.62633    
   4377000   306.94951      374.95348      18519.616      19333.749     -453.19648    
   4378000   291.92957      384.57939      18517.747      19320.016     -167.3566     
   4379000   295.6525       380.15199      18504.275      19307.444     -102.76236    
   4380000   305.66538      370.66588      18487.503      19295.512     -565.10302    
   4381000   299.7327       378.22761      18480.479      19287.561     -261.54497    
   4382000   279.41123      379.31557      18502.389      19281.483     -315.09095    
   4383000   295.18926      379.05822      18499.016      19300.428     -353.77231    
   4384000   290.11956      373.65986      18537.305      19326.064     -475.62346    
   4385000   311.65322      373.52431      18520.577      19340.011     -500.04575    
   4386000   322.39641      381.80591      18505.069      19348.156     -55.317164    
   4387000   312.18619      382.82237      18518.746      19348.241     -71.480241    
   4388000   308.55044      370.58923      18522.725      19334.785     -456.33271    
   4389000   305.98805      373.46683      18513.886      19325.157     -255.68667    
   4390000   295.4787       386.06718      18501.723      19310.558     -45.492308    
   4391000   295.12427      375.86553      18505.645      19303.771     -345.27043    
   4392000   303.7768       370.0969       18496.475      19301.212     -584.00765    
   4393000   280.76638      379.06363      18513.35       19294.131     -224.79465    
   4394000   291.71398      378.44046      18507.346      19303.168     -107.51853    
   4395000   301.20542      378.56662      18519.773      19329.301     -306.21624    
   4396000   308.65846      377.41057      18529.433      19348.469     -297.56268    
   4397000   310.36878      376.58497      18534.442      19355.1       -410.41534    
   4398000   305.29902      387.15968      18534.022      19358         -24.046459    
   4399000   302.38651      378.49309      18530.813      19341.957     -324.28704    
   4400000   298.23285      374.4989       18519.84       19321.047     -495.80887    
Loop time of 12.8643 on 4 procs for 50000 steps with 481 atoms

Performance: 16.791 ns/day, 1.429 hours/ns, 3886.740 timesteps/s, 1.870 Matom-step/s
98.6% CPU use with 4 MPI tasks x no OpenMP threads

MPI task timing breakdown:
Section |  min time  |  avg time  |  max time  |%varavg| %total
---------------------------------------------------------------
Pair    | 1.9477     | 3.1872     | 4.2077     |  45.9 | 24.78
Bond    | 4.0271     | 4.4809     | 4.9885     |  18.2 | 34.83
Neigh   | 0.13385    | 0.13393    | 0.13401    |   0.0 |  1.04
Comm    | 2.9456     | 4.4757     | 6.1668     |  54.0 | 34.79
Output  | 0.0017008  | 0.0026767  | 0.0030482  |   1.1 |  0.02
Modify  | 0.3882     | 0.39259    | 0.39828    |   0.6 |  3.05
Other   |            | 0.1913     |            |       |  1.49

Nlocal:         120.25 ave         127 max         113 min
Histogram: 1 1 0 0 0 0 0 0 0 2
Nghost:         4152.5 ave        4178 max        4130 min
Histogram: 2 0 0 0 0 0 0 1 0 1
Neighs:              0 ave           0 max           0 min
Histogram: 4 0 0 0 0 0 0 0 0 0

Total # of neighbors = 0
Ave neighs/atom = 0
Ave special neighs/atom = 15.567568
Neighbor list builds = 144
Dangerous builds = 0
unfix           myat1
next            cpt
jump            SELF loop
variable        zdes equal  -15+0.30*(${cpt}-1)
variable        zdes equal  -15+0.30*(74-1)
fix             mytth2 H2 spring tether ${k1} 5 5 ${zdes} 0
fix             mytth2 H2 spring tether 0.5 5 5 ${zdes} 0
fix             mytth2 H2 spring tether 0.5 5 5 6.9 0
run             10000
Generated 0 of 1 mixed pair_coeff terms from geometric mixing rule
Per MPI rank memory allocation (min/avg/max) = 14.61 | 14.61 | 14.61 Mbytes
   Step          Temp          E_pair         E_mol          TotEng         Press     
   4400000   298.23285      374.4989       18519.84       19321.047     -495.80887    
   4401000   300.41037      381.01934      18501.805      19312.648     -98.964942    
   4402000   297.14533      375.56957      18500.989      19301.71      -267.18747    
   4403000   307.55005      373.69947      18493.883      19307.622     -221.55581    
   4404000   306.21892      373.85945      18501.846      19313.84      -445.6295     
   4405000   303.8926       380.18653      18502.068      19317.06      -181.44304    
   4406000   313.29758      375.64813      18524.722      19348.633     -249.58024    
   4407000   308.82674      376.15225      18544.815      19362.833     -621.01399    
   4408000   307.3837       377.70474      18551.942      19369.448     -139.90575    
   4409000   315.47841      382.35496      18532.815      19366.553     -214.6424     
   4410000   310.26371      371.08386      18540.611      19355.617     -487.07941    
Loop time of 2.53102 on 4 procs for 10000 steps with 481 atoms

Performance: 17.068 ns/day, 1.406 hours/ns, 3950.981 timesteps/s, 1.900 Matom-step/s
98.8% CPU use with 4 MPI tasks x no OpenMP threads

MPI task timing breakdown:
Section |  min time  |  avg time  |  max time  |%varavg| %total
---------------------------------------------------------------
Pair    | 0.38699    | 0.63241    | 0.82076    |  20.6 | 24.99
Bond    | 0.80955    | 0.8936     | 0.98736    |   7.4 | 35.31
Neigh   | 0.023897   | 0.023938   | 0.02398    |   0.0 |  0.95
Comm    | 0.58634    | 0.86947    | 1.1978     |  23.4 | 34.35
Output  | 0.00028192 | 0.00031504 | 0.00039104 |   0.0 |  0.01
Modify  | 0.072665   | 0.073931   | 0.075403   |   0.4 |  2.92
Other   |            | 0.03736    |            |       |  1.48

Nlocal:         120.25 ave         128 max         113 min
Histogram: 2 0 0 0 0 0 0 0 1 1
Nghost:        4177.25 ave        4199 max        4154 min
Histogram: 2 0 0 0 0 0 0 0 0 2
Neighs:              0 ave           0 max           0 min
Histogram: 4 0 0 0 0 0 0 0 0 0

Total # of neighbors = 0
Ave neighs/atom = 0
Ave special neighs/atom = 15.567568
Neighbor list builds = 26
Dangerous builds = 0
fix             myat1 all ave/time 100 10 1000 v_zave v_zdes file simulation_data/abpot/${cpt}.dat
fix             myat1 all ave/time 100 10 1000 v_zave v_zdes file simulation_data/abpot/74.dat
run             50000
Generated 0 of 1 mixed pair_coeff terms from geometric mixing rule
Per MPI rank memory allocation (min/avg/max) = 14.61 | 14.61 | 14.61 Mbytes
   Step          Temp          E_pair         E_mol          TotEng         Press     
   4410000   310.26371      371.08386      18540.611      19355.617     -487.07941    
   4411000   320.00628      374.62514      18522.542      19355.029     -335.75937    
   4412000   319.15564      375.80161      18503.787      19336.233     -390.11412    
   4413000   302.5346       383.12678      18508.257      19324.247     -4.8239694    
   4414000   294.87077      372.4658       18526.996      19321.359     -353.44927    
   4415000   311.24349      365.66213      18508.802      19319.787     -652.86735    
   4416000   286.081        383.49041      18520.884      19313.696     -141.17876    
   4417000   295.27029      375.73954      18513.492      19311.701     -350.94596    
   4418000   299.40308      375.9854       18516.571      19320.939     -252.89027    
   4419000   298.87912      371.72342      18531.589      19330.946     -546.49782    
   4420000   296.4222       375.28038      18551.133      19350.531     -416.51907    
   4421000   304.06154      387.99612      18542.321      19365.365     -104.85251    
   4422000   302.61093      369.35624      18561.453      19363.781     -677.51665    
   4423000   316.4988       373.18704      18522.834      19348.864     -487.3653     
   4424000   297.59753      377.72051      18523.024      19326.543     -251.7257     
   4425000   298.83116      375.31115      18513.405      19316.28      -307.35948    
   4426000   291.49748      370.96848      18527.004      19315.043     -380.46235    
   4427000   304.55821      370.1523       18506.83       19312.741     -544.67088    
   4428000   306.97383      376.64549      18499.077      19314.937     -248.88912    
   4429000   305.08678      378.74014      18506.322      19321.577     -139.39571    
   4430000   292.97373      369.88268      18540.947      19330.013     -704.68059    
   4431000   311.79557      370.81789      18529.626      19346.558     -500.8528     
   4432000   299.49472      382.14838      18542.911      19353.573     -39.053189    
   4433000   310.65082      372.83373      18561.927      19379.237     -429.27566    
   4434000   338.86192      369.05239      18547.523      19401.415     -445.41439    
   4435000   332.76096      373.9622       18542.787      19392.86      -303.13619    
   4436000   318.63178      380.37222      18541.585      19377.852     -369.08351    
   4437000   307.00457      379.57124      18545.21       19364.04      -244.77144    
   4438000   299.74377      373.14033      18547.542      19349.552     -420.85586    
   4439000   305.8788       375.02392      18527.507      19340.179     -443.98473    
   4440000   295.99333      382.1245       18520.178      19325.807     -176.28731    
   4441000   289.48396      373.87199      18524.505      19312.568     -629.55773    
   4442000   285.32987      371.63882      18528.541      19308.427     -551.03867    
   4443000   292.97014      384.59095      18506.209      19309.978     -23.80018     
   4444000   298.57372      376.21559      18508.092      19311.503     -309.97764    
   4445000   293.70199      373.3356       18526.867      19320.428     -582.29633    
   4446000   309.57352      380.6371       18513.46       19337.031     -167.9873     
   4447000   305.09547      379.22224      18537.481      19353.231     -340.22597    
   4448000   321.63017      380.56386      18525.394      19366.143     -162.9645     
   4449000   317.24448      374.55527      18537.679      19366.144     -369.01562    
   4450000   310.78801      373.42387      18523.096      19341.192     -541.4829     
   4451000   302.08304      385.18869      18511.015      19328.421     -1.2464886    
   4452000   302.81579      375.87204      18517.455      19326.593     -420.93278    
   4453000   306.36742      369.66126      18515.351      19323.359     -540.60279    
   4454000   291.00845      382.04969      18516.087      19314.509     -332.30622    
   4455000   298.22836      382.60508      18507.586      19316.893     -129.6793     
   4456000   281.08019      372.55607      18541.298      19316.021     -679.93305    
   4457000   293.37595      373.48733      18526.158      19319.405     -388.39388    
   4458000   302.40295      379.12504      18518.033      19329.833     -333.47096    
   4459000   307.19934      384.58075      18517.339      19341.457     -35.382495    
   4460000   305.31552      374.67837      18542.963      19354.483     -591.65452    
Loop time of 12.7907 on 4 procs for 50000 steps with 481 atoms

Performance: 16.887 ns/day, 1.421 hours/ns, 3909.081 timesteps/s, 1.880 Matom-step/s
98.8% CPU use with 4 MPI tasks x no OpenMP threads

MPI task timing breakdown:
Section |  min time  |  avg time  |  max time  |%varavg| %total
---------------------------------------------------------------
Pair    | 1.9351     | 3.1837     | 4.2084     |  46.6 | 24.89
Bond    | 4.0001     | 4.4669     | 4.9833     |  18.3 | 34.92
Neigh   | 0.1238     | 0.12383    | 0.12388    |   0.0 |  0.97
Comm    | 2.9031     | 4.4474     | 6.1594     |  54.7 | 34.77
Output  | 0.0016722  | 0.0025623  | 0.0028819  |   1.0 |  0.02
Modify  | 0.37245    | 0.37772    | 0.38446    |   0.7 |  2.95
Other   |            | 0.1886     |            |       |  1.47

Nlocal:         120.25 ave         130 max         110 min
Histogram: 1 1 0 0 0 0 0 0 0 2
Nghost:         4146.5 ave        4179 max        4118 min
Histogram: 1 1 0 0 0 0 1 0 0 1
Neighs:              0 ave           0 max           0 min
Histogram: 4 0 0 0 0 0 0 0 0 0

Total # of neighbors = 0
Ave neighs/atom = 0
Ave special neighs/atom = 15.567568
Neighbor list builds = 134
Dangerous builds = 0
unfix           myat1
next            cpt
jump            SELF loop
variable        zdes equal  -15+0.30*(${cpt}-1)
variable        zdes equal  -15+0.30*(75-1)
fix             mytth2 H2 spring tether ${k1} 5 5 ${zdes} 0
fix             mytth2 H2 spring tether 0.5 5 5 ${zdes} 0
fix             mytth2 H2 spring tether 0.5 5 5 7.2 0
run             10000
Generated 0 of 1 mixed pair_coeff terms from geometric mixing rule
Per MPI rank memory allocation (min/avg/max) = 14.61 | 14.61 | 14.61 Mbytes
   Step          Temp          E_pair         E_mol          TotEng         Press     
   4460000   305.31552      374.67837      18542.963      19354.483     -591.65452    
   4461000   307.82825      372.39619      18556.972      19369.805     -522.08187    
   4462000   307.88736      386.15803      18535.032      19361.712     -230.86329    
   4463000   313.29782      375.86617      18527.856      19351.985     -297.07838    
   4464000   294.37278      370.36732      18540.513      19332.066     -641.86973    
   4465000   303.00742      366.85989      18521.994      19322.393     -471.70456    
   4466000   291.78055      380.34374      18503.122      19300.943     -206.66502    
   4467000   298.4002       379.21893      18496.224      19302.391     -125.36399    
   4468000   298.96942      366.12775      18515.633      19309.522     -853.91927    
   4469000   286.95334      372.14697      18522.444      19305.161     -443.37       
   4470000   304.37592      380.25194      18508.393      19324.143     -137.07424    
Loop time of 2.52101 on 4 procs for 10000 steps with 481 atoms

Performance: 17.136 ns/day, 1.401 hours/ns, 3966.656 timesteps/s, 1.908 Matom-step/s
98.6% CPU use with 4 MPI tasks x no OpenMP threads

MPI task timing breakdown:
Section |  min time  |  avg time  |  max time  |%varavg| %total
---------------------------------------------------------------
Pair    | 0.38116    | 0.63388    | 0.80334    |  22.3 | 25.14
Bond    | 0.80573    | 0.89474    | 0.99129    |   7.8 | 35.49
Neigh   | 0.018652   | 0.018694   | 0.018753   |   0.0 |  0.74
Comm    | 0.59189    | 0.86039    | 1.2        |  24.2 | 34.13
Output  | 0.00030796 | 0.00034078 | 0.00042854 |   0.0 |  0.01
Modify  | 0.072423   | 0.074962   | 0.077589   |   0.8 |  2.97
Other   |            | 0.038      |            |       |  1.51

Nlocal:         120.25 ave         128 max         113 min
Histogram: 2 0 0 0 0 0 0 0 0 2
Nghost:         4170.5 ave        4200 max        4142 min
Histogram: 1 0 1 0 0 0 0 1 0 1
Neighs:              0 ave           0 max           0 min
Histogram: 4 0 0 0 0 0 0 0 0 0

Total # of neighbors = 0
Ave neighs/atom = 0
Ave special neighs/atom = 15.567568
Neighbor list builds = 20
Dangerous builds = 0
fix             myat1 all ave/time 100 10 1000 v_zave v_zdes file simulation_data/abpot/${cpt}.dat
fix             myat1 all ave/time 100 10 1000 v_zave v_zdes file simulation_data/abpot/75.dat
run             50000
Generated 0 of 1 mixed pair_coeff terms from geometric mixing rule
Per MPI rank memory allocation (min/avg/max) = 14.61 | 14.61 | 14.61 Mbytes
   Step          Temp          E_pair         E_mol          TotEng         Press     
   4470000   304.37592      380.25194      18508.393      19324.143     -137.07424    
   4471000   317.75109      378.24963      18509.044      19341.928     -220.69044    
   4472000   325.87952      365.49844      18522.051      19353.814     -597.86792    
   4473000   320.05978      374.41516      18529.732      19362.085     -540.47276    
   4474000   330.20673      386.11556      18515.657      19374.228     -55.65932     
   4475000   307.57116      376.79001      18540.766      19357.626     -359.0534     
   4476000   301.38883      371.91706      18531.626      19334.767     -570.38176    
   4477000   303.92469      379.22455      18504.875      19318.951     -339.86632    
   4478000   308.5827       379.00054      18482.318      19302.836     -278.94166    
   4479000   301.66093      375.48324      18496.05       19303.146     -349.37099    
   4480000   292.93654      375.83941      18515.778      19310.748     -368.18989    
   4481000   300.17414      376.61463      18502.348      19308.448     -276.29362    
   4482000   305.16213      379.77753      18499.138      19315.538     -274.06625    
   4483000   307.53395      376.4712       18524.138      19340.625     -328.43406    
   4484000   310.72365      367.18332      18541.365      19353.128     -673.11277    
   4485000   296.56128      382.16934      18537.63       19344.116     -145.6209     
   4486000   312.16335      377.78325      18520.28       19344.703     -350.87295    
   4487000   304.89894      367.85765      18532.279      19336.382     -500.26319    
   4488000   291.23142      370.17356      18529.327      19316.191     -486.86111    
   4489000   288.56014      379.96586      18507.26       19300.094     -151.93421    
   4490000   282.33741      374.71453      18505.4        19284.08      -212.80057    
   4491000   277.24684      367.18552      18498.951      19262.818     -750.91338    
   4492000   291.47449      377.86542      18471.522      19266.426     -298.15556    
   4493000   272.83969      377.38996      18505.208      19272.974     -163.69949    
   4494000   276.45619      370.48342      18520.294      19286.328     -540.54056    
   4495000   299.54951      369.65675      18507.668      19305.916     -472.72623    
   4496000   307.91042      376.01002      18504.832      19321.397     -225.22231    
   4497000   301.9411       382.23807      18518.663      19332.915     -151.45401    
   4498000   299.70431      375.01254      18543.527      19347.353     -397.26682    
   4499000   308.50006      370.38481      18538.818      19350.601     -506.49749    
   4500000   303.09375      388.24546      18512.661      19334.57      -104.20452    
   4501000   303.72179      382.43386      18524.595      19341.59      -170.01907    
   4502000   299.12434      368.26684      18529.815      19326.065     -601.40186    
   4503000   304.64305      377.73918      18494.451      19308.07      -325.83035    
   4504000   289.29259      380.74428      18498.699      19293.36      -156.22572    
   4505000   292.19634      378.56863      18495.923      19292.563     -242.17423    
   4506000   293.98866      369.65071      18518.961      19309.247     -581.52781    
   4507000   281.58468      373.98703      18532.224      19309.099     -441.4778     
   4508000   304.71759      382.05658      18501.99       19320.033     -224.90689    
   4509000   299.96412      380.98248      18511.679      19321.847     -174.40168    
   4510000   302.99525      365.52945      18529.164      19328.215     -722.69303    
   4511000   310.05216      373.90498      18514.256      19331.78      -328.86303    
   4512000   313.74553      380.19061      18496.018      19325.112     -241.15579    
   4513000   305.61263      374.3743       18508.613      19320.254     -355.92934    
   4514000   308.59716      369.08475      18520.689      19331.311     -629.04813    
   4515000   307.45879      373.51976      18527.647      19341.075     -437.21435    
   4516000   310.7814       381.52841      18513.633      19339.824     -248.68877    
   4517000   315.45778      378.46456      18531.074      19360.892     -306.11694    
   4518000   306.07245      374.78889      18545.427      19358.141     -663.47849    
   4519000   295.86366      379.1941       18552.355      19354.867     -163.66265    
   4520000   298.93984      387.55188      18519.541      19334.812     -140.33129    
Loop time of 12.5983 on 4 procs for 50000 steps with 481 atoms

Performance: 17.145 ns/day, 1.400 hours/ns, 3968.789 timesteps/s, 1.909 Matom-step/s
98.9% CPU use with 4 MPI tasks x no OpenMP threads

MPI task timing breakdown:
Section |  min time  |  avg time  |  max time  |%varavg| %total
---------------------------------------------------------------
Pair    | 1.9029     | 3.1533     | 4.0758     |  47.5 | 25.03
Bond    | 3.9826     | 4.4514     | 4.9597     |  18.2 | 35.33
Neigh   | 0.11391    | 0.11394    | 0.11397    |   0.0 |  0.90
Comm    | 2.8867     | 4.3182     | 6.0366     |  54.4 | 34.28
Output  | 0.0016969  | 0.0025347  | 0.0028449  |   1.0 |  0.02
Modify  | 0.36906    | 0.37242    | 0.37692    |   0.5 |  2.96
Other   |            | 0.1864     |            |       |  1.48

Nlocal:         120.25 ave         127 max         113 min
Histogram: 2 0 0 0 0 0 0 0 0 2
Nghost:        4189.25 ave        4214 max        4165 min
Histogram: 1 1 0 0 0 0 0 0 1 1
Neighs:              0 ave           0 max           0 min
Histogram: 4 0 0 0 0 0 0 0 0 0

Total # of neighbors = 0
Ave neighs/atom = 0
Ave special neighs/atom = 15.567568
Neighbor list builds = 123
Dangerous builds = 0
unfix           myat1
next            cpt
jump            SELF loop
variable        zdes equal  -15+0.30*(${cpt}-1)
variable        zdes equal  -15+0.30*(76-1)
fix             mytth2 H2 spring tether ${k1} 5 5 ${zdes} 0
fix             mytth2 H2 spring tether 0.5 5 5 ${zdes} 0
fix             mytth2 H2 spring tether 0.5 5 5 7.5 0
run             10000
Generated 0 of 1 mixed pair_coeff terms from geometric mixing rule
Per MPI rank memory allocation (min/avg/max) = 14.61 | 14.61 | 14.61 Mbytes
   Step          Temp          E_pair         E_mol          TotEng         Press     
   4520000   298.93984      387.55188      18519.541      19334.812     -140.33129    
   4521000   295.28885      373.06504      18527.633      19323.194     -553.86157    
   4522000   296.09871      372.7049       18518.311      19314.671     -540.2196     
   4523000   302.5343       382.74606      18486.496      19302.104     -129.09219    
   4524000   287.78637      378.60954      18517.734      19308.105     -408.74785    
   4525000   287.06796      375.79828      18527.969      19314.501     -391.30303    
   4526000   308.48392      374.23113      18510.494      19326.1       -526.88232    
   4527000   307.46914      379.96565      18519.096      19338.986     -273.25421    
   4528000   315.07881      380.13174      18520.991      19351.934     -237.88225    
   4529000   317.0018       377.13485      18545.264      19375.962     -254.78026    
   4530000   323.37378      370.26924      18560.664      19393.612     -576.78042    
Loop time of 2.52247 on 4 procs for 10000 steps with 481 atoms

Performance: 17.126 ns/day, 1.401 hours/ns, 3964.368 timesteps/s, 1.907 Matom-step/s
99.2% CPU use with 4 MPI tasks x no OpenMP threads

MPI task timing breakdown:
Section |  min time  |  avg time  |  max time  |%varavg| %total
---------------------------------------------------------------
Pair    | 0.3826     | 0.63303    | 0.83576    |  20.7 | 25.10
Bond    | 0.78926    | 0.88626    | 0.99066    |   8.3 | 35.13
Neigh   | 0.024576   | 0.024621   | 0.024665   |   0.0 |  0.98
Comm    | 0.5666     | 0.87191    | 1.221      |  24.9 | 34.57
Output  | 0.00030621 | 0.00033551 | 0.00041154 |   0.0 |  0.01
Modify  | 0.067741   | 0.06989    | 0.072057   |   0.7 |  2.77
Other   |            | 0.03642    |            |       |  1.44

Nlocal:         120.25 ave         127 max         114 min
Histogram: 1 1 0 0 0 0 0 1 0 1
Nghost:        4162.25 ave        4193 max        4129 min
Histogram: 1 0 0 0 1 0 1 0 0 1
Neighs:              0 ave           0 max           0 min
Histogram: 4 0 0 0 0 0 0 0 0 0

Total # of neighbors = 0
Ave neighs/atom = 0
Ave special neighs/atom = 15.567568
Neighbor list builds = 27
Dangerous builds = 0
fix             myat1 all ave/time 100 10 1000 v_zave v_zdes file simulation_data/abpot/${cpt}.dat
fix             myat1 all ave/time 100 10 1000 v_zave v_zdes file simulation_data/abpot/76.dat
run             50000
Generated 0 of 1 mixed pair_coeff terms from geometric mixing rule
Per MPI rank memory allocation (min/avg/max) = 14.61 | 14.61 | 14.61 Mbytes
   Step          Temp          E_pair         E_mol          TotEng         Press     
   4530000   323.37378      370.26924      18560.664      19393.612     -576.78042    
   4531000   335.57166      380.89501      18538.966      19399.993     -182.90368    
   4532000   343.09562      378.14078      18532.624      19401.663     -328.9078     
   4533000   294.76453      373.63772      18571.737      19367.12      -470.30318    
   4534000   308.86151      378.48153      18533.486      19353.883     -500.22758    
   4535000   302.50405      384.39363      18529.433      19346.646     -119.4933     
   4536000   292.58987      374.55998      18537.785      19330.98      -524.93865    
   4537000   296.14936      377.94203      18517.643      19319.313     -379.66963    
   4538000   287.61155      377.79255      18512.887      19302.191     -359.80355    
   4539000   293.41804      381.06823      18506.642      19307.529     -162.54467    
   4540000   297.49918      378.01263      18506.345      19310.016     -277.61838    
   4541000   305.12848      370.65068      18507.21       19314.435     -554.95685    
   4542000   309.70122      380.6652       18487.681      19311.463     -201.0641     
   4543000   312.90916      384.07357      18505.626      19337.406     -182.8394     
   4544000   310.91536      374.31784      18529.465      19348.637     -534.66174    
   4545000   302.68843      370.37346      18547.641      19351.097     -420.14107    
   4546000   306.6019       382.13483      18529.12       19349.937     -223.02001    
   4547000   303.67747      380.66347      18516.054      19331.216     -143.71755    
   4548000   293.76646      375.80013      18529.383      19325.501     -385.31761    
   4549000   297.54477      377.21127      18496.723      19299.658     -196.86202    
   4550000   284.57822      378.25421      18499.756      19285.182     -342.86807    
   4551000   290.64971      380.17331      18497.433      19293.465     -333.62989    
   4552000   290.52656      373.15111      18513.951      19302.784     -467.14692    
   4553000   290.30463      376.73021      18515.201      19307.296     -255.4352     
   4554000   296.6021       376.54348      18521.14       19322.058     -328.04683    
   4555000   296.93912      375.91235      18534.614      19335.383     -514.44099    
   4556000   311.14606      381.97579      18519.768      19346.928     -359.21916    
   4557000   302.88286      374.18745      18546.068      19353.616     -401.29453    
   4558000   309.55792      375.34657      18529.66       19347.919     -465.95114    
   4559000   308.52316      382.05161      18516.23       19339.713     -190.71394    
   4560000   294.13123      374.30182      18522.394      19317.536     -499.16754    
   4561000   285.51592      380.65147      18506.269      19295.434     -321.51058    
   4562000   284.9492       376.20742      18503.388      19287.298     -235.06812    
   4563000   282.90783      372.59523      18512.425      19289.802     -377.78059    
   4564000   287.68844      377.34662      18513.662      19302.63      -241.37517    
   4565000   307.6095       375.84536      18494.829      19310.798     -312.79002    
   4566000   294.58534      379.08373      18519.834      19320.407     -206.878      
   4567000   291.73748      378.17748      18532.066      19327.658     -270.88707    
   4568000   295.59294      379.49244      18537.433      19339.857     -324.39656    
   4569000   304.85633      379.16203      18519.277      19334.624     -206.49986    
   4570000   292.67352      380.7947       18537.158      19336.707     -296.52351    
   4571000   307.03637      378.46383      18519.129      19336.897     -382.22909    
   4572000   292.73137      378.78352      18528.977      19326.597     -281.57729    
   4573000   288.45663      380.23542      18518.717      19311.673     -299.43382    
   4574000   289.18943      374.87567      18502.251      19290.895     -413.1456     
   4575000   277.2934       373.32367      18508.651      19278.723     -424.92001    
   4576000   288.91382      377.93303      18491.171      19282.478     -362.35922    
   4577000   290.24483      378.90513      18501.296      19295.48      -250.50408    
   4578000   282.73896      375.73765      18536.015      19316.292     -317.86612    
   4579000   310.78807      372.94447      18503.897      19321.513     -440.0699     
   4580000   300.83518      372.28756      18522.802      19325.522     -441.6747     
Loop time of 12.5973 on 4 procs for 50000 steps with 481 atoms

Performance: 17.147 ns/day, 1.400 hours/ns, 3969.102 timesteps/s, 1.909 Matom-step/s
99.0% CPU use with 4 MPI tasks x no OpenMP threads

MPI task timing breakdown:
Section |  min time  |  avg time  |  max time  |%varavg| %total
---------------------------------------------------------------
Pair    | 1.9116     | 3.1499     | 4.1053     |  46.4 | 25.00
Bond    | 3.9707     | 4.4388     | 4.9488     |  18.2 | 35.24
Neigh   | 0.12052    | 0.12064    | 0.1207     |   0.0 |  0.96
Comm    | 2.8694     | 4.3299     | 6.0415     |  54.3 | 34.37
Output  | 0.0016554  | 0.002435   | 0.0027274  |   0.9 |  0.02
Modify  | 0.36279    | 0.37001    | 0.37571    |   0.8 |  2.94
Other   |            | 0.1856     |            |       |  1.47

Nlocal:         120.25 ave         128 max         113 min
Histogram: 2 0 0 0 0 0 0 0 0 2
Nghost:         4167.5 ave        4192 max        4141 min
Histogram: 1 1 0 0 0 0 0 0 1 1
Neighs:              0 ave           0 max           0 min
Histogram: 4 0 0 0 0 0 0 0 0 0

Total # of neighbors = 0
Ave neighs/atom = 0
Ave special neighs/atom = 15.567568
Neighbor list builds = 131
Dangerous builds = 0
unfix           myat1
next            cpt
jump            SELF loop
variable        zdes equal  -15+0.30*(${cpt}-1)
variable        zdes equal  -15+0.30*(77-1)
fix             mytth2 H2 spring tether ${k1} 5 5 ${zdes} 0
fix             mytth2 H2 spring tether 0.5 5 5 ${zdes} 0
fix             mytth2 H2 spring tether 0.5 5 5 7.8 0
run             10000
Generated 0 of 1 mixed pair_coeff terms from geometric mixing rule
Per MPI rank memory allocation (min/avg/max) = 14.61 | 14.61 | 14.61 Mbytes
   Step          Temp          E_pair         E_mol          TotEng         Press     
   4580000   300.83518      372.28756      18522.802      19325.522     -441.6747     
   4581000   316.09289      383.90933      18499.234      19335.405     -10.420259    
   4582000   299.39764      376.18058      18532.967      19337.522     -412.35152    
   4583000   289.76447      372.51267      18546.591      19333.695     -549.98009    
   4584000   281.69718      382.83056      18537.005      19322.885     -185.65011    
   4585000   290.64832      379.50734      18519.812      19315.175     -354.87191    
   4586000   293.91264      376.36174      18505.28       19302.168     -461.75489    
   4587000   288.05203      376.77301      18492.787      19281.702     -304.91882    
   4588000   295.16801      373.98684      18491.425      19287.735     -478.15246    
   4589000   285.44844      382.66403      18493.129      19284.209     -176.115      
   4590000   304.90315      375.01332      18492.584      19303.849     -435.35024    
Loop time of 2.58009 on 4 procs for 10000 steps with 481 atoms

Performance: 16.744 ns/day, 1.433 hours/ns, 3875.835 timesteps/s, 1.864 Matom-step/s
98.3% CPU use with 4 MPI tasks x no OpenMP threads

MPI task timing breakdown:
Section |  min time  |  avg time  |  max time  |%varavg| %total
---------------------------------------------------------------
Pair    | 0.38739    | 0.64028    | 0.82941    |  20.6 | 24.82
Bond    | 0.80544    | 0.89867    | 1.0015     |   8.2 | 34.83
Neigh   | 0.024358   | 0.024374   | 0.024391   |   0.0 |  0.94
Comm    | 0.6069     | 0.89601    | 1.2448     |  24.0 | 34.73
Output  | 0.00032325 | 0.00035441 | 0.00043583 |   0.0 |  0.01
Modify  | 0.07766    | 0.080991   | 0.083932   |   1.0 |  3.14
Other   |            | 0.03941    |            |       |  1.53

Nlocal:         120.25 ave         124 max         117 min
Histogram: 2 0 0 0 0 0 0 0 1 1
Nghost:        4154.75 ave        4174 max        4136 min
Histogram: 2 0 0 0 0 0 0 0 1 1
Neighs:              0 ave           0 max           0 min
Histogram: 4 0 0 0 0 0 0 0 0 0

Total # of neighbors = 0
Ave neighs/atom = 0
Ave special neighs/atom = 15.567568
Neighbor list builds = 26
Dangerous builds = 0
fix             myat1 all ave/time 100 10 1000 v_zave v_zdes file simulation_data/abpot/${cpt}.dat
fix             myat1 all ave/time 100 10 1000 v_zave v_zdes file simulation_data/abpot/77.dat
run             50000
Generated 0 of 1 mixed pair_coeff terms from geometric mixing rule
Per MPI rank memory allocation (min/avg/max) = 14.61 | 14.61 | 14.61 Mbytes
   Step          Temp          E_pair         E_mol          TotEng         Press     
   4590000   304.90315      375.01332      18492.584      19303.849     -435.35024    
   4591000   303.06541      372.53346      18524.223      19330.379     -641.73974    
   4592000   309.08705      379.74988      18516.202      19338.19      -231.15571    
   4593000   310.14331      375.32042      18520.906      19339.976     -602.02487    
   4594000   309.08262      372.44522      18529.87       19344.548     -429.15841    
   4595000   301.21329      375.04499      18529.534      19335.552     -518.12291    
   4596000   310.30237      369.60507      18510.787      19324.37      -546.49357    
   4597000   307.33559      376.61306      18496.085      19312.43      -351.98529    
   4598000   292.73533      377.26505      18506.441      19302.549     -309.8532     
   4599000   296.27656      366.46783      18504.149      19294.526     -599.17824    
   4600000   276.91239      380.13525      18509.611      19285.949     -292.17031    
   4601000   285.53757      373.45169      18510.591      19292.586     -376.87489    
   4602000   289.2196       376.55223      18526.401      19316.766     -314.78117    
   4603000   296.80586      376.64445      18536.26       19337.571     -334.74354    
   4604000   310.62595      376.49637      18520.767      19341.704     -468.8374     
   4605000   319.80175      384.64736      18510.919      19353.135     -88.276584    
   4606000   314.42089      374.64298      18525.889      19350.402     -530.92689    
   4607000   307.83878      378.69365      18519.44       19338.586     -457.09093    
   4608000   304.14337      384.22302      18506.811      19326.199     -113.42516    
   4609000   288.12464      378.28919      18512.684      19303.219     -436.91201    
   4610000   293.35916      378.04413      18506.798      19304.577     -375.4112     
   4611000   285.38261      376.81678      18518.995      19304.134     -473.82379    
   4612000   295.56796      375.23725      18509.814      19307.946     -349.44151    
   4613000   308.03504      382.14729      18489.78       19312.661     -26.121013    
   4614000   269.64554      367.27648      18558.212      19311.294     -678.56675    
   4615000   299.80943      373.46628      18513.984      19316.415     -384.8101     
   4616000   307.20899      377.17528      18504.427      19321.154     -210.84518    
   4617000   312.39494      372.3175       18507.645      19326.934     -493.02328    
   4618000   298.42601      376.61483      18523.019      19326.618     -504.91158    
   4619000   311.48249      372.22382      18513.943      19331.833     -538.28632    
   4620000   305.89102      381.44565      18514.081      19333.192     -266.62339    
   4621000   297.31993      374.60609      18524.778      19324.786     -482.6774     
   4622000   304.61423      374.5831       18508.994      19319.416     -329.17033    
   4623000   283.47741      378.69522      18517.372      19301.664     -284.85358    
   4624000   284.61905      376.20817      18512.721      19296.159     -515.18972    
   4625000   293.33294      378.10463      18499.564      19297.366     -339.32196    
   4626000   283.5959       375.41184      18513.731      19294.909     -430.63592    
   4627000   295.91187      377.33021      18508.056      19308.774     -412.67722    
   4628000   307.94916      381.19825      18505.9        19327.708     -347.08742    
   4629000   303.77253      374.92763      18533.895      19343.457     -437.98578    
   4630000   312.18099      377.92904      18521.057      19345.651     -394.30014    
   4631000   307.19092      376.18622      18528.629      19344.34      -228.718      
   4632000   294.3653       376.54153      18536.692      19334.409     -353.30934    
   4633000   311.03202      378.22918      18498.26       19321.51      -227.8754     
   4634000   309.5432       377.47465      18498.026      19318.391     -468.44126    
   4635000   302.03669      381.25418      18497.813      19311.217     -229.36034    
   4636000   305.75215      376.88932      18503.636      19317.992     -486.72894    
   4637000   295.51843      377.61471      18517.57       19318.009     -339.53981    
   4638000   291.56296      378.72456      18513.225      19309.115     -443.67884    
   4639000   296.50314      377.94499      18510.175      19312.353     -525.66       
   4640000   292.70404      378.45493      18522.559      19319.812     -419.00894    
Loop time of 12.4459 on 4 procs for 50000 steps with 481 atoms

Performance: 17.355 ns/day, 1.383 hours/ns, 4017.394 timesteps/s, 1.932 Matom-step/s
99.1% CPU use with 4 MPI tasks x no OpenMP threads

MPI task timing breakdown:
Section |  min time  |  avg time  |  max time  |%varavg| %total
---------------------------------------------------------------
Pair    | 1.8973     | 3.1207     | 4.0422     |  45.9 | 25.07
Bond    | 3.9698     | 4.4236     | 4.9177     |  17.8 | 35.54
Neigh   | 0.11728    | 0.11733    | 0.11738    |   0.0 |  0.94
Comm    | 2.8203     | 4.2376     | 5.9123     |  53.6 | 34.05
Output  | 0.0015603  | 0.0023667  | 0.0026737  |   1.0 |  0.02
Modify  | 0.3595     | 0.36362    | 0.3687     |   0.5 |  2.92
Other   |            | 0.1807     |            |       |  1.45

Nlocal:         120.25 ave         129 max         112 min
Histogram: 1 1 0 0 0 0 0 0 1 1
Nghost:           4163 ave        4185 max        4137 min
Histogram: 1 0 1 0 0 0 0 0 0 2
Neighs:              0 ave           0 max           0 min
Histogram: 4 0 0 0 0 0 0 0 0 0

Total # of neighbors = 0
Ave neighs/atom = 0
Ave special neighs/atom = 15.567568
Neighbor list builds = 128
Dangerous builds = 0
unfix           myat1
next            cpt
jump            SELF loop
variable        zdes equal  -15+0.30*(${cpt}-1)
variable        zdes equal  -15+0.30*(78-1)
fix             mytth2 H2 spring tether ${k1} 5 5 ${zdes} 0
fix             mytth2 H2 spring tether 0.5 5 5 ${zdes} 0
fix             mytth2 H2 spring tether 0.5 5 5 8.1 0
run             10000
Generated 0 of 1 mixed pair_coeff terms from geometric mixing rule
Per MPI rank memory allocation (min/avg/max) = 14.61 | 14.61 | 14.61 Mbytes
   Step          Temp          E_pair         E_mol          TotEng         Press     
   4640000   292.70404      378.45493      18522.559      19319.812     -419.00894    
   4641000   293.58868      380.31888      18520.575      19320.958     -412.97634    
   4642000   300.85042      378.0248       18518.249      19326.727     -423.41584    
   4643000   288.5593       381.10522      18544.232      19338.204     -268.74139    
   4644000   315.70668      379.7165       18534.378      19365.804     -203.04103    
   4645000   319.18384      374.84189      18543.252      19374.779     -551.52295    
   4646000   302.21057      378.51414      18559.046      19369.959     -325.48986    
   4647000   301.00612      377.1949       18540.152      19348.023     -303.31665    
   4648000   297.56059      377.55336      18524.65       19327.95      -315.21775    
   4649000   311.82909      372.27869      18500.391      19318.832     -567.83149    
   4650000   302.1925       380.04337      18506.518      19318.935     -201.86004    
Loop time of 2.51757 on 4 procs for 10000 steps with 481 atoms

Performance: 17.159 ns/day, 1.399 hours/ns, 3972.090 timesteps/s, 1.911 Matom-step/s
98.9% CPU use with 4 MPI tasks x no OpenMP threads

MPI task timing breakdown:
Section |  min time  |  avg time  |  max time  |%varavg| %total
---------------------------------------------------------------
Pair    | 0.37718    | 0.62928    | 0.81374    |  20.9 | 25.00
Bond    | 0.79222    | 0.88924    | 0.9943     |   8.6 | 35.32
Neigh   | 0.023914   | 0.023948   | 0.023989   |   0.0 |  0.95
Comm    | 0.57709    | 0.86609    | 1.2159     |  24.5 | 34.40
Output  | 0.00027983 | 0.00030756 | 0.00038037 |   0.0 |  0.01
Modify  | 0.070128   | 0.070933   | 0.071749   |   0.2 |  2.82
Other   |            | 0.03777    |            |       |  1.50

Nlocal:         120.25 ave         126 max         115 min
Histogram: 2 0 0 0 0 0 0 0 0 2
Nghost:        4169.75 ave        4190 max        4149 min
Histogram: 2 0 0 0 0 0 0 0 0 2
Neighs:              0 ave           0 max           0 min
Histogram: 4 0 0 0 0 0 0 0 0 0

Total # of neighbors = 0
Ave neighs/atom = 0
Ave special neighs/atom = 15.567568
Neighbor list builds = 26
Dangerous builds = 0
fix             myat1 all ave/time 100 10 1000 v_zave v_zdes file simulation_data/abpot/${cpt}.dat
fix             myat1 all ave/time 100 10 1000 v_zave v_zdes file simulation_data/abpot/78.dat
run             50000
Generated 0 of 1 mixed pair_coeff terms from geometric mixing rule
Per MPI rank memory allocation (min/avg/max) = 14.61 | 14.61 | 14.61 Mbytes
   Step          Temp          E_pair         E_mol          TotEng         Press     
   4650000   302.1925       380.04337      18506.518      19318.935     -201.86004    
   4651000   295.80509      379.11706      18509.907      19312.258     -373.45832    
   4652000   302.02145      381.32002      18497.452      19310.901     -177.69236    
   4653000   309.02346      380.34261      18492.324      19314.814     -380.78431    
   4654000   314.52057      374.28358      18497.228      19321.525     -561.62779    
   4655000   307.17432      385.55946      18501.784      19326.845     -250.46308    
   4656000   307.94732      379.70984      18517.966      19338.284     -406.27056    
   4657000   308.45747      375.7432       18532.879      19349.959     -482.8473     
   4658000   321.3155       376.00875      18521.243      19356.986     -425.79721    
   4659000   317.05621      384.29147      18519.242      19357.174     -110.31461    
   4660000   302.6875       375.14598      18527.847      19336.074     -454.14066    
   4661000   293.35792      374.49224      18530.243      19324.468     -452.40303    
   4662000   297.46632      373.56138      18504.581      19303.754     -524.48026    
   4663000   292.65243      371.93491      18505.667      19296.326     -479.04512    
   4664000   294.30542      376.28281      18503.81       19301.181     -244.81076    
   4665000   288.9468       371.08973      18515.899      19300.411     -500.07128    
   4666000   304.02792      370.64515      18509.472      19315.117     -406.63881    
   4667000   295.46594      381.62855      18529.132      19333.51      -285.23083    
   4668000   310.46685      377.7021       18517.134      19339.048     -275.45454    
   4669000   319.15037      373.81952      18510.461      19340.917     -395.41595    
   4670000   310.34408      373.00804      18522.074      19339.118     -293.68649    
   4671000   300.33289      380.805        18514.657      19325.175     -181.06307    
   4672000   300.72477      370.86156      18489.006      19290.141     -478.11842    
   4673000   297.72981      372.31131      18481.876      19280.175     -495.41806    
   4674000   292.56409      373.18109      18485.021      19276.799     -323.73418    
   4675000   285.64778      375.84475      18499.743      19284.289     -335.29843    
   4676000   286.7059       375.37324      18520.569      19306.158     -508.94555    
   4677000   277.28555      373.39399      18543.16       19313.291     -374.22966    
   4678000   307.48578      379.36996      18511.871      19331.188     -340.03394    
   4679000   307.4919       377.6088       18525.693      19343.257     -270.64944    
   4680000   296.62415      369.71527      18548.372      19342.494     -622.1298     
   4681000   297.79238      376.97909      18529.191      19332.248     -340.67611    
   4682000   309.61839      378.70232      18508.729      19330.43      -218.03342    
   4683000   285.26198      371.02015      18530.12       19309.289     -498.17443    
   4684000   278.02599      367.67968      18527.652      19293.128     -601.2773     
   4685000   283.49011      374.7405       18502.316      19282.671     -402.40376    
   4686000   290.71754      377.05262      18492.855      19285.863     -195.41808    
   4687000   280.17235      375.90311      18511.847      19288.618     -158.34279    
   4688000   284.18274      367.13108      18529.552      19303.289     -768.11837    
   4689000   292.61507      380.91589      18506.121      19305.707     -129.29044    
   4690000   296.21928      383.99323      18500.231      19308.051     -43.403445    
   4691000   288.27346      371.38216      18538.812      19322.653     -465.50004    
   4692000   287.28353      374.26223      18539.049      19324.353     -425.6196     
   4693000   290.5704       378.16574      18532.283      19326.194     -195.96413    
   4694000   296.52695      376.74583      18527.762      19328.775     -305.06747    
   4695000   302.89036      373.2649       18528.298      19334.935     -551.65847    
   4696000   301.81545      376.19334      18518.627      19326.655     -402.74898    
   4697000   290.77856      382.79974      18515.918      19314.76      -210.51878    
   4698000   281.60225      380.39657      18519.427      19302.737     -315.93601    
   4699000   289.63496      375.82285      18498.971      19289.201     -452.28305    
   4700000   286.91575      377.00387      18502.137      19289.657     -357.16135    
Loop time of 12.9593 on 4 procs for 50000 steps with 481 atoms

Performance: 16.668 ns/day, 1.440 hours/ns, 3858.224 timesteps/s, 1.856 Matom-step/s
98.1% CPU use with 4 MPI tasks x no OpenMP threads

MPI task timing breakdown:
Section |  min time  |  avg time  |  max time  |%varavg| %total
---------------------------------------------------------------
Pair    | 1.9332     | 3.1974     | 4.0897     |  48.8 | 24.67
Bond    | 4.0559     | 4.5029     | 5.0027     |  18.0 | 34.75
Neigh   | 0.11363    | 0.11373    | 0.11383    |   0.0 |  0.88
Comm    | 3.1224     | 4.5184     | 6.2257     |  53.0 | 34.87
Output  | 0.0019017  | 0.0027469  | 0.0030452  |   0.9 |  0.02
Modify  | 0.41982    | 0.42634    | 0.43419    |   0.8 |  3.29
Other   |            | 0.1978     |            |       |  1.53

Nlocal:         120.25 ave         128 max         112 min
Histogram: 2 0 0 0 0 0 0 0 0 2
Nghost:         4167.5 ave        4190 max        4145 min
Histogram: 2 0 0 0 0 0 0 0 0 2
Neighs:              0 ave           0 max           0 min
Histogram: 4 0 0 0 0 0 0 0 0 0

Total # of neighbors = 0
Ave neighs/atom = 0
Ave special neighs/atom = 15.567568
Neighbor list builds = 120
Dangerous builds = 0
unfix           myat1
next            cpt
jump            SELF loop
variable        zdes equal  -15+0.30*(${cpt}-1)
variable        zdes equal  -15+0.30*(79-1)
fix             mytth2 H2 spring tether ${k1} 5 5 ${zdes} 0
fix             mytth2 H2 spring tether 0.5 5 5 ${zdes} 0
fix             mytth2 H2 spring tether 0.5 5 5 8.4 0
run             10000
Generated 0 of 1 mixed pair_coeff terms from geometric mixing rule
Per MPI rank memory allocation (min/avg/max) = 14.61 | 14.61 | 14.61 Mbytes
   Step          Temp          E_pair         E_mol          TotEng         Press     
   4700000   286.91575      377.00387      18502.137      19289.657     -357.16135    
   4701000   295.43269      379.37304      18492.001      19294.076     -378.22459    
   4702000   301.88574      378.9487       18487.016      19297.9       -155.9086     
   4703000   296.07589      371.803        18532.389      19327.814     -555.24281    
   4704000   315.01472      377.82421      18518.362      19346.906     -193.78605    
   4705000   312.38355      384.56982      18507.212      19338.737     -166.60918    
   4706000   300.51897      373.51402      18531.109      19334.602     -368.75302    
   4707000   303.23746      368.25245      18529.959      19332.081     -520.39344    
   4708000   298.41113      378.22317      18514.422      19319.609     -264.74155    
   4709000   295.00634      381.77043      18501.076      19304.939     -265.65204    
   4710000   304.80726      378.67382      18489.509      19304.297     -408.87441    
Loop time of 2.56343 on 4 procs for 10000 steps with 481 atoms

Performance: 16.852 ns/day, 1.424 hours/ns, 3901.023 timesteps/s, 1.876 Matom-step/s
98.6% CPU use with 4 MPI tasks x no OpenMP threads

MPI task timing breakdown:
Section |  min time  |  avg time  |  max time  |%varavg| %total
---------------------------------------------------------------
Pair    | 0.37977    | 0.63701    | 0.8265     |  21.2 | 24.85
Bond    | 0.79639    | 0.89632    | 1.0029     |   8.5 | 34.97
Neigh   | 0.026456   | 0.026469   | 0.026485   |   0.0 |  1.03
Comm    | 0.59203    | 0.888      | 1.2451     |  24.8 | 34.64
Output  | 0.00028108 | 0.00031249 | 0.00039459 |   0.0 |  0.01
Modify  | 0.076644   | 0.077154   | 0.07759    |   0.1 |  3.01
Other   |            | 0.03815    |            |       |  1.49

Nlocal:         120.25 ave         127 max         114 min
Histogram: 2 0 0 0 0 0 0 0 1 1
Nghost:        4177.25 ave        4202 max        4151 min
Histogram: 1 0 1 0 0 0 0 0 1 1
Neighs:              0 ave           0 max           0 min
Histogram: 4 0 0 0 0 0 0 0 0 0

Total # of neighbors = 0
Ave neighs/atom = 0
Ave special neighs/atom = 15.567568
Neighbor list builds = 28
Dangerous builds = 0
fix             myat1 all ave/time 100 10 1000 v_zave v_zdes file simulation_data/abpot/${cpt}.dat
fix             myat1 all ave/time 100 10 1000 v_zave v_zdes file simulation_data/abpot/79.dat
run             50000
Generated 0 of 1 mixed pair_coeff terms from geometric mixing rule
Per MPI rank memory allocation (min/avg/max) = 14.61 | 14.61 | 14.61 Mbytes
   Step          Temp          E_pair         E_mol          TotEng         Press     
   4710000   304.80726      378.67382      18489.509      19304.297     -408.87441    
   4711000   297.99132      376.11188      18500.058      19302.533     -524.98411    
   4712000   293.00899      374.28809      18497.315      19290.837     -386.79932    
   4713000   297.87357      383.89218      18479.762      19289.848     -33.161502    
   4714000   277.23321      374.65635      18503.62       19274.939     -414.58446    
   4715000   280.66129      374.60412      18503.606      19279.777     -430.7951     
   4716000   295.14361      379.08868      18501.393      19302.77      -225.60616    
   4717000   305.88643      377.17603      18503.907      19318.742     -415.65318    
   4718000   296.92673      375.90543      18532.298      19333.043     -387.30506    
   4719000   302.94705      372.08862      18525.044      19330.586     -502.30292    
   4720000   323.92914      375.96299      18497.631      19337.069     -132.93206    
   4721000   300.03999      380.83577      18522.111      19332.241     -367.38828    
   4722000   306.44709      376.27017      18514.677      19329.408     -309.68351    
   4723000   297.81203      376.37976      18508.109      19310.595     -382.83549    
   4724000   268.09262      383.56124      18515.41       19282.555     -56.691093    
   4725000   292.47973      373.47117      18489.782      19281.73      -383.57984    
   4726000   288.77864      378.21646      18504.548      19295.946     -354.36243    
   4727000   285.21085      372.37604      18507.697      19288.15      -587.78931    
   4728000   282.18139      382.08305      18516.834      19302.659     -235.69285    
   4729000   296.93856      379.56992      18506.444      19310.87      -379.84521    
   4730000   292.55604      368.67333      18529.205      19316.465     -681.76895    
   4731000   291.2344       383.5779       18524.666      19324.939     -246.76831    
   4732000   300.17429      382.7897       18510.794      19323.07      -83.609253    
   4733000   294.89187      376.74898      18526.826      19325.503     -497.31202    
   4734000   311.55996      373.02394      18517.326      19336.126     -470.69699    
   4735000   324.22938      378.58049      18490.943      19333.427     -271.36339    
   4736000   302.39569      379.43712      18515.072      19327.174     -109.71435    
   4737000   281.75353      374.88635      18540.571      19318.587     -368.11683    
   4738000   294.26676      369.80501      18521.505      19312.344     -668.54756    
   4739000   281.19925      380.95856      18509.781      19293.077     -283.57672    
   4740000   290.2895       388.49471      18485.858      19289.696      3.7478861    
   4741000   293.12662      369.42898      18504.493      19293.324     -587.30032    
   4742000   300.48173      379.31166      18494.363      19303.6       -291.02819    
   4743000   279.98847      383.56306      18524.781      19308.949     -238.79544    
   4744000   306.24289      380.28428      18517.758      19336.211     -260.29097    
   4745000   344.93563      376.42638      18478.559      19348.516     -381.603      
   4746000   303.69229      373.04938      18536.417      19343.986     -571.28901    
   4747000   309.53429      384.61704      18513.181      19340.676     -33.948685    
   4748000   306.75032      379.50862      18515.936      19334.34      -374.26954    
   4749000   280.28036      370.59661      18545.236      19316.855     -600.95121    
   4750000   316.04096      371.28917      18492.797      19316.274     -479.18006    
   4751000   290.08942      387.24932      18501.554      19303.86      -1.8893497    
   4752000   279.91422      376.34728      18526.598      19303.443     -403.96271    
   4753000   293.16428      373.44547      18525.829      19318.731     -436.47893    
   4754000   306.16186      376.21004      18496.47       19310.733     -367.63085    
   4755000   297.3027       386.21915      18495.706      19307.303     -66.484379    
   4756000   302.50018      376.69309      18504.408      19313.915     -351.66651    
   4757000   299.75891      364.11505      18524.695      19317.702     -703.8549     
   4758000   294.53538      380.32428      18515.295      19317.037     -188.71273    
   4759000   295.7581       380.55492      18520.003      19323.725     -175.60195    
   4760000   300.42058      372.025        18519.88       19321.743     -477.35983    
Loop time of 12.4288 on 4 procs for 50000 steps with 481 atoms

Performance: 17.379 ns/day, 1.381 hours/ns, 4022.900 timesteps/s, 1.935 Matom-step/s
99.2% CPU use with 4 MPI tasks x no OpenMP threads

MPI task timing breakdown:
Section |  min time  |  avg time  |  max time  |%varavg| %total
---------------------------------------------------------------
Pair    | 1.9045     | 3.1257     | 4.0173     |  45.5 | 25.15
Bond    | 3.9914     | 4.4276     | 4.9041     |  17.5 | 35.62
Neigh   | 0.12418    | 0.1243     | 0.12443    |   0.0 |  1.00
Comm    | 2.8462     | 4.2109     | 5.871      |  52.7 | 33.88
Output  | 0.0015967  | 0.0023271  | 0.0026046  |   0.9 |  0.02
Modify  | 0.35072    | 0.35512    | 0.35839    |   0.5 |  2.86
Other   |            | 0.1829     |            |       |  1.47

Nlocal:         120.25 ave         128 max         113 min
Histogram: 2 0 0 0 0 0 0 0 0 2
Nghost:        4151.75 ave        4182 max        4124 min
Histogram: 1 0 1 0 0 0 0 1 0 1
Neighs:              0 ave           0 max           0 min
Histogram: 4 0 0 0 0 0 0 0 0 0

Total # of neighbors = 0
Ave neighs/atom = 0
Ave special neighs/atom = 15.567568
Neighbor list builds = 136
Dangerous builds = 0
unfix           myat1
next            cpt
jump            SELF loop
variable        zdes equal  -15+0.30*(${cpt}-1)
variable        zdes equal  -15+0.30*(80-1)
fix             mytth2 H2 spring tether ${k1} 5 5 ${zdes} 0
fix             mytth2 H2 spring tether 0.5 5 5 ${zdes} 0
fix             mytth2 H2 spring tether 0.5 5 5 8.7 0
run             10000
Generated 0 of 1 mixed pair_coeff terms from geometric mixing rule
Per MPI rank memory allocation (min/avg/max) = 14.61 | 14.61 | 14.61 Mbytes
   Step          Temp          E_pair         E_mol          TotEng         Press     
   4760000   300.42058      372.025        18519.88       19321.743     -477.35983    
   4761000   319.55929      371.86821      18497.504      19326.594     -443.83426    
   4762000   299.45178      380.26883      18533.78       19342.502     -223.10678    
   4763000   325.14418      384.41044      18506.154      19355.778      39.137601    
   4764000   319.23041      367.38409      18538.58       19362.716     -648.91598    
   4765000   321.65585      371.67688      18520.072      19351.97      -549.24093    
   4766000   291.15277      383.82335      18529.493      19329.894      11.966733    
   4767000   287.85227      373.88384      18529.952      19315.692     -328.86684    
   4768000   282.41662      368.82282      18537.075      19309.976     -559.32452    
   4769000   293.3971       374.82371      18511.218      19305.831     -251.60415    
   4770000   294.11394      384.58538      18500.872      19306.272     -94.032372    
Loop time of 2.43966 on 4 procs for 10000 steps with 481 atoms

Performance: 17.707 ns/day, 1.355 hours/ns, 4098.924 timesteps/s, 1.972 Matom-step/s
99.6% CPU use with 4 MPI tasks x no OpenMP threads

MPI task timing breakdown:
Section |  min time  |  avg time  |  max time  |%varavg| %total
---------------------------------------------------------------
Pair    | 0.36557    | 0.6131     | 0.78537    |  22.4 | 25.13
Bond    | 0.7898     | 0.882      | 0.98272    |   8.4 | 36.15
Neigh   | 0.023697   | 0.023703   | 0.023709   |   0.0 |  0.97
Comm    | 0.5596     | 0.8167     | 1.159      |  24.6 | 33.48
Output  | 0.00025775 | 0.00028322 | 0.00034987 |   0.0 |  0.01
Modify  | 0.06568    | 0.068536   | 0.071355   |   1.0 |  2.81
Other   |            | 0.03534    |            |       |  1.45

Nlocal:         120.25 ave         129 max         112 min
Histogram: 1 1 0 0 0 0 0 0 1 1
Nghost:        4180.25 ave        4209 max        4149 min
Histogram: 1 0 0 1 0 0 0 1 0 1
Neighs:              0 ave           0 max           0 min
Histogram: 4 0 0 0 0 0 0 0 0 0

Total # of neighbors = 0
Ave neighs/atom = 0
Ave special neighs/atom = 15.567568
Neighbor list builds = 26
Dangerous builds = 0
fix             myat1 all ave/time 100 10 1000 v_zave v_zdes file simulation_data/abpot/${cpt}.dat
fix             myat1 all ave/time 100 10 1000 v_zave v_zdes file simulation_data/abpot/80.dat
run             50000
Generated 0 of 1 mixed pair_coeff terms from geometric mixing rule
Per MPI rank memory allocation (min/avg/max) = 14.61 | 14.61 | 14.61 Mbytes
   Step          Temp          E_pair         E_mol          TotEng         Press     
   4770000   294.11394      384.58538      18500.872      19306.272     -94.032372    
   4771000   290.67239      371.38292      18521.922      19309.196     -468.30873    
   4772000   294.8786       367.14637      18532.507      19321.562     -680.47061    
   4773000   307.11437      380.08528      18513.547      19333.048     -198.3147     
   4774000   306.84997      377.10662      18528.031      19344.175     -231.41689    
   4775000   331.50918      372.39082      18532.344      19379.055     -454.47436    
   4776000   329.64302      367.56703      18542.647      19381.863     -728.06183    
   4777000   315.51901      383.29005      18538.633      19373.365     -158.49691    
   4778000   322.21996      383.39691      18519.335      19363.76      -61.816743    
   4779000   317.57532      366.53906      18531.378      19352.301     -649.33713    
   4780000   319.83413      369.41299      18514.515      19341.543     -579.35132    
   4781000   308.36409      382.91781      18505.023      19329.145     -28.190543    
   4782000   296.95361      377.72837      18512.994      19315.6       -405.61601    
   4783000   290.67175      365.14876      18525.715      19306.754     -741.76073    
   4784000   296.21611      372.09478      18510.329      19306.246     -385.13404    
   4785000   286.8921       383.22635      18500.372      19294.08      -265.85406    
   4786000   276.96763      379.58526      18528.463      19304.33      -154.84415    
   4787000   283.51255      364.39274      18543.508      19313.548     -814.03867    
   4788000   307.80136      368.49671      18534.276      19343.172     -522.03562    
   4789000   299.22161      389.49842      18531.393      19349.014      149.75733    
   4790000   309.68083      365.75804      18546.552      19355.398     -746.58823    
   4791000   317.69556      370.0041       18524.867      19349.426     -647.64759    
   4792000   307.87821      378.53545      18517.261      19336.305     -175.20515    
   4793000   303.97509      380.77246      18507.067      19322.764     -228.26246    
   4794000   304.0538       373.7382       18514.741      19323.516     -333.55152    
   4795000   315.5375       364.78025      18505.017      19321.265     -560.88634    
   4796000   301.99172      376.68312      18503.811      19312.581     -335.42496    
   4797000   298.40766      382.90864      18498.087      19307.954      64.541973    
   4798000   297.16146      368.73974      18521.368      19315.283     -565.97851    
   4799000   303.78791      368.87458      18516.963      19320.494     -624.3354     
   4800000   292.70991      385.26852      18510.629      19314.704     -96.793914    
   4801000   305.80065      378.32078      18504.96       19320.817     -219.13444    
   4802000   310.1966       370.62522      18522.02       19336.471     -643.92502    
   4803000   289.47606      372.53371      18556.109      19342.822     -605.0369     
   4804000   320.59467      379.93569      18513.668      19352.307     -268.63037    
   4805000   308.56567      384.41581      18510.879      19336.787     -113.73758    
   4806000   297.71253      369.25205      18533.849      19329.064     -731.48725    
   4807000   311.98238      376.93389      18497.699      19321.014     -312.80678    
   4808000   280.24613      387.44977      18506.186      19294.609     -54.880767    
   4809000   293.05386      379.24236      18497.928      19296.468     -182.95535    
   4810000   292.31913      369.85025      18510.306      19298.403     -560.66735    
   4811000   298.51769      374.4019       18498.075      19299.593     -477.70915    
   4812000   289.90111      384.49433      18506.591      19305.872     -46.604294    
   4813000   291.80563      372.80741      18538.791      19329.11      -470.62602    
   4814000   304.80178      369.30321      18538.679      19344.09      -684.31903    
   4815000   327.17916      375.40496      18516.569      19360.098     -301.45213    
   4816000   301.4082       388.33016      18533.413      19352.994     -96.348466    
   4817000   307.51597      370.69406      18542.895      19353.579     -470.64939    
   4818000   288.67517      367.08459      18561.564      19341.681     -625.00365    
   4819000   325.21672      376.14324      18480.27       19321.729     -160.7669     
   4820000   316.87849      381.18714      18475.427      19310.001     -114.73746    
Loop time of 12.3314 on 4 procs for 50000 steps with 481 atoms

Performance: 17.516 ns/day, 1.370 hours/ns, 4054.704 timesteps/s, 1.950 Matom-step/s
99.2% CPU use with 4 MPI tasks x no OpenMP threads

MPI task timing breakdown:
Section |  min time  |  avg time  |  max time  |%varavg| %total
---------------------------------------------------------------
Pair    | 1.855      | 3.0996     | 4.0017     |  51.0 | 25.14
Bond    | 3.9911     | 4.4261     | 4.9231     |  17.8 | 35.89
Neigh   | 0.13377    | 0.13378    | 0.13379    |   0.0 |  1.08
Comm    | 2.8177     | 4.1272     | 5.7992     |  54.8 | 33.47
Output  | 0.0015418  | 0.0022091  | 0.0024569  |   0.8 |  0.02
Modify  | 0.35279    | 0.36152    | 0.37124    |   1.3 |  2.93
Other   |            | 0.1809     |            |       |  1.47

Nlocal:         120.25 ave         124 max         117 min
Histogram: 1 1 0 0 0 0 0 1 0 1
Nghost:         4179.5 ave        4201 max        4158 min
Histogram: 1 1 0 0 0 0 0 0 1 1
Neighs:              0 ave           0 max           0 min
Histogram: 4 0 0 0 0 0 0 0 0 0

Total # of neighbors = 0
Ave neighs/atom = 0
Ave special neighs/atom = 15.567568
Neighbor list builds = 146
Dangerous builds = 0
unfix           myat1
next            cpt
jump            SELF loop
variable        zdes equal  -15+0.30*(${cpt}-1)
variable        zdes equal  -15+0.30*(81-1)
fix             mytth2 H2 spring tether ${k1} 5 5 ${zdes} 0
fix             mytth2 H2 spring tether 0.5 5 5 ${zdes} 0
fix             mytth2 H2 spring tether 0.5 5 5 9 0
run             10000
Generated 0 of 1 mixed pair_coeff terms from geometric mixing rule
Per MPI rank memory allocation (min/avg/max) = 14.61 | 14.61 | 14.61 Mbytes
   Step          Temp          E_pair         E_mol          TotEng         Press     
   4820000   316.87849      381.18714      18475.427      19310.001     -114.73746    
   4821000   289.54753      369.15731      18518.636      19302.074     -486.26625    
   4822000   304.62278      364.75701      18502.444      19303.051     -556.34072    
   4823000   292.47449      383.4526       18493.524      19295.445      40.137644    
   4824000   290.05522      377.84896      18503.833      19296.69      -324.90869    
   4825000   307.93925      372.21463      18504.065      19316.876     -418.0764     
   4826000   297.61647      373.65251      18539.232      19338.711     -510.53132    
   4827000   301.46211      374.63226      18548.603      19354.563     -270.23435    
   4828000   315.77275      385.65957      18517.327      19354.791     -28.067285    
   4829000   320.72083      367.094        18521.945      19347.923     -537.6968     
   4830000   318.70976      369.64933      18512.072      19337.728     -732.00123    
Loop time of 2.46245 on 4 procs for 10000 steps with 481 atoms

Performance: 17.543 ns/day, 1.368 hours/ns, 4060.991 timesteps/s, 1.953 Matom-step/s
99.2% CPU use with 4 MPI tasks x no OpenMP threads

MPI task timing breakdown:
Section |  min time  |  avg time  |  max time  |%varavg| %total
---------------------------------------------------------------
Pair    | 0.37203    | 0.62042    | 0.79956    |  22.5 | 25.20
Bond    | 0.79603    | 0.88536    | 0.98189    |   8.0 | 35.95
Neigh   | 0.025855   | 0.025876   | 0.025898   |   0.0 |  1.05
Comm    | 0.5722     | 0.82394    | 1.1631     |  24.4 | 33.46
Output  | 0.00030167 | 0.00033084 | 0.00040471 |   0.0 |  0.01
Modify  | 0.068316   | 0.070168   | 0.072106   |   0.6 |  2.85
Other   |            | 0.03636    |            |       |  1.48

Nlocal:         120.25 ave         129 max         112 min
Histogram: 2 0 0 0 0 0 0 0 1 1
Nghost:        4168.25 ave        4194 max        4141 min
Histogram: 1 1 0 0 0 0 0 0 1 1
Neighs:              0 ave           0 max           0 min
Histogram: 4 0 0 0 0 0 0 0 0 0

Total # of neighbors = 0
Ave neighs/atom = 0
Ave special neighs/atom = 15.567568
Neighbor list builds = 28
Dangerous builds = 0
fix             myat1 all ave/time 100 10 1000 v_zave v_zdes file simulation_data/abpot/${cpt}.dat
fix             myat1 all ave/time 100 10 1000 v_zave v_zdes file simulation_data/abpot/81.dat
run             50000
Generated 0 of 1 mixed pair_coeff terms from geometric mixing rule
Per MPI rank memory allocation (min/avg/max) = 14.61 | 14.61 | 14.61 Mbytes
   Step          Temp          E_pair         E_mol          TotEng         Press     
   4830000   318.70976      369.64933      18512.072      19337.728     -732.00123    
   4831000   285.14174      389.29028      18526.963      19324.23       113.71834    
   4832000   292.17154      380.09348      18517.921      19316.05      -253.95958    
   4833000   317.38953      368.18764      18495.044      19317.349     -582.59962    
   4834000   299.09306      378.65904      18502.193      19308.791     -232.88918    
   4835000   311.55682      377.66595      18485.549      19308.987     -179.29532    
   4836000   308.74515      380.76799      18497.921      19320.438     -217.02006    
   4837000   293.29361      371.93199      18529.431      19321.004     -702.39935    
   4838000   292.49138      372.2778       18536.165      19326.936     -608.69751    
   4839000   307.2609       389.09869      18507.465      19336.189      107.37991    
   4840000   304.95982      377.04299      18552.066      19365.442     -523.3611     
   4841000   306.16659      366.76624      18568.565      19373.391     -788.96723    
   4842000   298.57627      392.64117      18539.909      19359.75       138.45986    
   4843000   299.1865       376.41644      18536.819      19341.308     -491.41507    
   4844000   311.84182      375.07037      18507.914      19329.165     -294.93774    
   4845000   303.53056      375.9637       18510.04       19320.292     -357.56757    
   4846000   280.52413      378.18688      18526          19305.558     -465.57923    
   4847000   290.41074      385.85266      18508.641      19310.011      169.94731    
   4848000   294.67311      372.68511      18516.892      19311.192     -593.084      
   4849000   302.73052      369.41363      18513.499      19316.056     -705.66221    
   4850000   298.14708      389.64845      18506.154      19322.388      54.244976    
   4851000   288.85481      383.53197      18534.651      19331.473     -258.23801    
   4852000   310.91743      366.48026      18544.594      19355.932     -788.27304    
   4853000   290.89012      381.79783      18564.822      19362.822     -323.97445    
   4854000   315.44878      386.26705      18526.886      19364.493     -84.305011    
   4855000   324.76799      379.61915      18517.575      19361.868     -160.07657    
   4856000   295.72759      374.39891      18540.652      19338.175     -633.80625    
   4857000   297.75131      372.5453       18516.956      19315.521     -427.17071    
   4858000   303.22148      388.7279       18485.203      19307.777     -2.4641956    
   4859000   308.08503      376.48594      18491.633      19308.924     -172.35121    
   4860000   303.04061      367.44714      18508.925      19309.96      -724.31287    
   4861000   295.29751      380.28444      18517.205      19319.997     -227.00868    
   4862000   290.84251      388.80848      18508.824      19313.767      35.20972     
   4863000   312.66068      379.57893      18497.807      19324.737     -345.22989    
   4864000   320.49094      365.65887      18524.761      19348.974     -792.48023    
   4865000   306.57572      381.78953      18534.244      19354.679     -120.10324    
   4866000   296.32794      388.23694      18546.858      19359.078     -36.2114      
   4867000   298.73577      375.98486      18562.667      19366.08      -553.20889    
   4868000   306.33884      367.43764      18536.101      19341.845     -707.91687    
   4869000   302.17933      379.92484      18504.729      19317.009     -140.96793    
   4870000   292.5842       382.45717      18496.614      19297.698     -166.41351    
   4871000   288.4159       369.34025      18522.026      19304.028     -471.56617    
   4872000   297.21164      366.29434      18517.679      19309.221     -862.93857    
   4873000   300.08981      381.77415      18506.211      19317.35      -77.39224     
   4874000   294.76689      386.32001      18510.88       19318.949     -45.935833    
   4875000   311.22584      360.60589      18535.987      19341.891     -841.73944    
   4876000   315.58865      373.32641      18527.556      19352.423     -683.40231    
   4877000   306.27429      390.2559       18529.588      19358.057      289.87942    
   4878000   304.35335      376.79471      18533          19345.26      -416.81802    
   4879000   298.97545      368.40609      18539.954      19336.13      -710.54283    
   4880000   299.17202      373.14211      18500.26       19301.454     -461.51487    
Loop time of 12.6763 on 4 procs for 50000 steps with 481 atoms

Performance: 17.040 ns/day, 1.408 hours/ns, 3944.359 timesteps/s, 1.897 Matom-step/s
98.7% CPU use with 4 MPI tasks x no OpenMP threads

MPI task timing breakdown:
Section |  min time  |  avg time  |  max time  |%varavg| %total
---------------------------------------------------------------
Pair    | 1.9197     | 3.1668     | 4.0658     |  46.0 | 24.98
Bond    | 4.0205     | 4.4628     | 4.9571     |  17.8 | 35.21
Neigh   | 0.1315     | 0.13165    | 0.13182    |   0.0 |  1.04
Comm    | 2.9399     | 4.3271     | 6.0222     |  53.0 | 34.14
Output  | 0.0018957  | 0.0028012  | 0.0031667  |   1.0 |  0.02
Modify  | 0.38581    | 0.3946     | 0.40114    |   1.0 |  3.11
Other   |            | 0.1905     |            |       |  1.50

Nlocal:         120.25 ave         125 max         116 min
Histogram: 1 0 0 1 0 1 0 0 0 1
Nghost:         4176.5 ave        4197 max        4158 min
Histogram: 2 0 0 0 0 0 0 0 1 1
Neighs:              0 ave           0 max           0 min
Histogram: 4 0 0 0 0 0 0 0 0 0

Total # of neighbors = 0
Ave neighs/atom = 0
Ave special neighs/atom = 15.567568
Neighbor list builds = 142
Dangerous builds = 0
unfix           myat1
next            cpt
jump            SELF loop
variable        zdes equal  -15+0.30*(${cpt}-1)
variable        zdes equal  -15+0.30*(82-1)
fix             mytth2 H2 spring tether ${k1} 5 5 ${zdes} 0
fix             mytth2 H2 spring tether 0.5 5 5 ${zdes} 0
fix             mytth2 H2 spring tether 0.5 5 5 9.3 0
run             10000
Generated 0 of 1 mixed pair_coeff terms from geometric mixing rule
Per MPI rank memory allocation (min/avg/max) = 14.61 | 14.61 | 14.61 Mbytes
   Step          Temp          E_pair         E_mol          TotEng         Press     
   4880000   299.17202      373.14211      18500.26       19301.454     -461.51487    
   4881000   282.1279       385.51917      18494.966      19284.151      63.713767    
   4882000   269.57187      372.60812      18534.975      19293.283     -452.77603    
   4883000   296.90495      368.30238      18512.269      19305.38      -610.7431     
   4884000   301.40372      374.45826      18511          19316.703     -330.16414    
   4885000   309.91704      385.16844      18507.827      19336.421     -73.11519     
   4886000   313.04953      373.21084      18527.585      19348.704     -437.93459    
   4887000   304.33179      367.46616      18540.474      19343.375     -531.15995    
   4888000   316.50824      384.67221      18507.883      19345.411     -107.99624    
   4889000   294.2533       380.76394      18549.602      19351.38      -200.91931    
   4890000   306.52047      372.71323      18530.62       19341.9       -499.9326     
Loop time of 2.42823 on 4 procs for 10000 steps with 481 atoms

Performance: 17.791 ns/day, 1.349 hours/ns, 4118.230 timesteps/s, 1.981 Matom-step/s
99.6% CPU use with 4 MPI tasks x no OpenMP threads

MPI task timing breakdown:
Section |  min time  |  avg time  |  max time  |%varavg| %total
---------------------------------------------------------------
Pair    | 0.36969    | 0.61626    | 0.79564    |  22.5 | 25.38
Bond    | 0.79258    | 0.88002    | 0.97476    |   7.7 | 36.24
Neigh   | 0.026238   | 0.026264   | 0.02629    |   0.0 |  1.08
Comm    | 0.55332    | 0.8016     | 1.138      |  24.6 | 33.01
Output  | 0.0002485  | 0.00027269 | 0.00033362 |   0.0 |  0.01
Modify  | 0.065892   | 0.068752   | 0.07149    |   0.9 |  2.83
Other   |            | 0.03505    |            |       |  1.44

Nlocal:         120.25 ave         131 max         110 min
Histogram: 2 0 0 0 0 0 0 0 1 1
Nghost:        4162.25 ave        4187 max        4137 min
Histogram: 2 0 0 0 0 0 0 0 0 2
Neighs:              0 ave           0 max           0 min
Histogram: 4 0 0 0 0 0 0 0 0 0

Total # of neighbors = 0
Ave neighs/atom = 0
Ave special neighs/atom = 15.567568
Neighbor list builds = 29
Dangerous builds = 0
fix             myat1 all ave/time 100 10 1000 v_zave v_zdes file simulation_data/abpot/${cpt}.dat
fix             myat1 all ave/time 100 10 1000 v_zave v_zdes file simulation_data/abpot/82.dat
run             50000
Generated 0 of 1 mixed pair_coeff terms from geometric mixing rule
Per MPI rank memory allocation (min/avg/max) = 14.61 | 14.61 | 14.61 Mbytes
   Step          Temp          E_pair         E_mol          TotEng         Press     
   4890000   306.52047      372.71323      18530.62       19341.9       -499.9326     
   4891000   289.02535      373.13143      18527.188      19313.854     -456.92445    
   4892000   284.2865       380.81091      18508.345      19295.91      -152.11752    
   4893000   285.46308      380.6164       18496.805      19285.859     -125.65391    
   4894000   291.70981      366.94358      18513.305      19297.624     -682.90218    
   4895000   287.09648      373.70997      18524.712      19309.196     -401.12099    
   4896000   292.07021      382.81411      18512.049      19312.754     -41.820788    
   4897000   292.4338       378.70035      18528.921      19326.033     -303.01275    
   4898000   291.89394      367.92033      18548.686      19334.245     -701.57855    
   4899000   302.41621      373.21585      18526.48       19332.389     -493.52876    
   4900000   288.34182      387.20601      18528.746      19328.508     -31.791063    
   4901000   314.69448      376.29971      18513.957      19340.518     -321.59841    
   4902000   291.84349      367.0012       18553.144      19337.712     -787.24659    
   4903000   300.33024      376.5364       18523.39       19329.635     -402.27217    
   4904000   294.01166      384.65181      18515.798      19321.119     -79.127525    
   4905000   295.32064      374.48164      18500.554      19297.577     -594.73463    
   4906000   286.18819      369.74485      18511.096      19290.316     -620.1502     
   4907000   298.71781      376.10736      18489.052      19292.561     -213.82774    
   4908000   291.57881      381.33241      18501.336      19299.856     -169.65502    
   4909000   286.43046      374.84374      18532.149      19316.814     -379.75734    
   4910000   298.29721      366.83615      18543.907      19337.543     -795.82919    
   4911000   301.5358       385.85476      18521.422      19338.711     -200.3886     
   4912000   306.90408      379.30641      18520.853      19339.274     -160.92225    
   4913000   318.21457      372.72681      18519.178      19347.202     -539.3964     
   4914000   306.12669      372.72639      18529.264      19339.993     -417.69772    
   4915000   301.77728      370.70711      18514.825      19317.312     -497.34583    
   4916000   298.2026       386.79916      18497.627      19311.091     -3.6323043    
   4917000   290.75458      366.52532      18514.298      19296.831     -772.95031    
   4918000   288.76016      369.44997      18499.597      19282.202     -549.00325    
   4919000   282.92562      378.47453      18494.482      19277.763     -331.3609     
   4920000   278.12122      374.6768       18506.932      19279.542     -281.20953    
   4921000   294.77919      369.81974      18501.562      19293.149     -438.52108    
   4922000   291.18061      373.09751      18524.78       19314.496     -366.30475    
   4923000   300.60521      378.98555      18517.656      19326.744     -249.48188    
   4924000   308.93658      381.59821      18509.086      19332.708     -86.733723    
   4925000   320.55506      370.03006      18522.959      19351.636     -550.72475    
   4926000   306.47244      372.46681      18541.982      19352.946     -438.28751    
   4927000   295.31774      386.96098      18527.132      19336.631     -75.624002    
   4928000   309.89258      377.16705      18510.54       19331.098     -326.0689     
   4929000   298.93656      368.79322      18515.601      19312.109     -637.98084    
   4930000   291.19574      377.59029      18502.674      19296.904     -350.07055    
   4931000   288.8831       385.67306      18500.754      19299.758     -107.02987    
   4932000   287.58333      375.83378      18514.429      19301.734     -431.86766    
   4933000   299.42196      376.16314      18500.084      19304.656     -390.13387    
   4934000   291.29934      378.65567      18517.296      19312.739     -370.0564     
   4935000   295.00118      386.00163      18515.318      19323.404     -57.782031    
   4936000   305.74501      375.79413      18512.948      19326.199     -571.57201    
   4937000   299.02466      368.36835      18534.63       19330.839     -490.56005    
   4938000   308.13418      382.74682      18506.153      19329.775     -202.95127    
   4939000   298.45537      381.63997      18514.763      19323.43      -255.63264    
   4940000   290.1847       374.59548      18539.966      19329.755     -549.9977     
Loop time of 12.2412 on 4 procs for 50000 steps with 481 atoms

Performance: 17.645 ns/day, 1.360 hours/ns, 4084.561 timesteps/s, 1.965 Matom-step/s
99.3% CPU use with 4 MPI tasks x no OpenMP threads

MPI task timing breakdown:
Section |  min time  |  avg time  |  max time  |%varavg| %total
---------------------------------------------------------------
Pair    | 1.8364     | 3.0875     | 3.9391     |  50.2 | 25.22
Bond    | 3.9541     | 4.4059     | 4.9064     |  18.2 | 35.99
Neigh   | 0.13635    | 0.13644    | 0.13654    |   0.0 |  1.11
Comm    | 2.7795     | 4.0876     | 5.7894     |  55.1 | 33.39
Output  | 0.0015425  | 0.0022751  | 0.002552   |   0.9 |  0.02
Modify  | 0.34151    | 0.34374    | 0.34712    |   0.4 |  2.81
Other   |            | 0.1777     |            |       |  1.45

Nlocal:         120.25 ave         122 max         118 min
Histogram: 1 0 1 0 0 0 0 0 0 2
Nghost:        4169.75 ave        4189 max        4151 min
Histogram: 1 1 0 0 0 0 0 0 1 1
Neighs:              0 ave           0 max           0 min
Histogram: 4 0 0 0 0 0 0 0 0 0

Total # of neighbors = 0
Ave neighs/atom = 0
Ave special neighs/atom = 15.567568
Neighbor list builds = 150
Dangerous builds = 0
unfix           myat1
next            cpt
jump            SELF loop
variable        zdes equal  -15+0.30*(${cpt}-1)
variable        zdes equal  -15+0.30*(83-1)
fix             mytth2 H2 spring tether ${k1} 5 5 ${zdes} 0
fix             mytth2 H2 spring tether 0.5 5 5 ${zdes} 0
fix             mytth2 H2 spring tether 0.5 5 5 9.6 0
run             10000
Generated 0 of 1 mixed pair_coeff terms from geometric mixing rule
Per MPI rank memory allocation (min/avg/max) = 14.61 | 14.61 | 14.61 Mbytes
   Step          Temp          E_pair         E_mol          TotEng         Press     
   4940000   290.1847       374.59548      18539.966      19329.755     -549.9977     
   4941000   308.96759      377.62038      18504.638      19324.325     -505.39371    
   4942000   291.21155      380.19203      18511.97       19308.825     -236.08565    
   4943000   308.99643      383.65657      18482.72       19308.485     -248.51874    
   4944000   304.84506      372.48771      18502.064      19310.721     -562.06483    
   4945000   292.77388      373.81723      18511.788      19304.503     -531.23806    
   4946000   297.87253      386.17913      18494.724      19307.096     -88.118522    
   4947000   302.46086      373.30606      18501.438      19307.502     -222.34696    
   4948000   300.28117      374.14777      18511.323      19315.11      -466.57399    
   4949000   300.61563      371.74216      18529.411      19331.271     -629.52313    
   4950000   302.26348      388.98317      18521.474      19342.933      69.097436    
Loop time of 2.49637 on 4 procs for 10000 steps with 481 atoms

Performance: 17.305 ns/day, 1.387 hours/ns, 4005.822 timesteps/s, 1.927 Matom-step/s
99.0% CPU use with 4 MPI tasks x no OpenMP threads

MPI task timing breakdown:
Section |  min time  |  avg time  |  max time  |%varavg| %total
---------------------------------------------------------------
Pair    | 0.38142    | 0.62659    | 0.80618    |  20.4 | 25.10
Bond    | 0.80022    | 0.88814    | 0.98483    |   7.9 | 35.58
Neigh   | 0.026522   | 0.02655    | 0.026579   |   0.0 |  1.06
Comm    | 0.57008    | 0.8464     | 1.1798     |  23.7 | 33.91
Output  | 0.00028529 | 0.000316   | 0.00039312 |   0.0 |  0.01
Modify  | 0.070932   | 0.071468   | 0.071966   |   0.2 |  2.86
Other   |            | 0.0369     |            |       |  1.48

Nlocal:         120.25 ave         131 max         110 min
Histogram: 2 0 0 0 0 0 0 0 1 1
Nghost:         4176.5 ave        4205 max        4144 min
Histogram: 1 0 1 0 0 0 0 0 1 1
Neighs:              0 ave           0 max           0 min
Histogram: 4 0 0 0 0 0 0 0 0 0

Total # of neighbors = 0
Ave neighs/atom = 0
Ave special neighs/atom = 15.567568
Neighbor list builds = 29
Dangerous builds = 0
fix             myat1 all ave/time 100 10 1000 v_zave v_zdes file simulation_data/abpot/${cpt}.dat
fix             myat1 all ave/time 100 10 1000 v_zave v_zdes file simulation_data/abpot/83.dat
run             50000
Generated 0 of 1 mixed pair_coeff terms from geometric mixing rule
Per MPI rank memory allocation (min/avg/max) = 14.61 | 14.61 | 14.61 Mbytes
   Step          Temp          E_pair         E_mol          TotEng         Press     
   4950000   302.26348      388.98317      18521.474      19342.933      69.097436    
   4951000   313.66463      373.65785      18525.824      19348.27      -513.66081    
   4952000   303.09617      367.58851      18554.176      19355.431     -807.9373     
   4953000   317.61342      382.8465       18507.713      19344.997     -256.04641    
   4954000   302.91577      380.61648      18504.538      19318.563     -152.17403    
   4955000   309.79878      374.20647      18480.011      19297.474     -385.03454    
   4956000   291.99087      370.49137      18505.937      19294.206     -655.15739    
   4957000   298.15075      375.44473      18490.849      19292.885     -318.52405    
   4958000   307.21097      389.07608      18470.913      19299.543      70.260333    
   4959000   306.36012      375.6272       18502.146      19316.109     -431.90589    
   4960000   298.62252      367.47553      18525.323      19320.064     -778.86325    
   4961000   305.81056      381.44194      18504.336      19323.328     -37.902968    
   4962000   309.22094      384.52337      18510.579      19337.532      61.644871    
   4963000   303.41798      367.87701      18538.299      19340.303     -644.73736    
   4964000   310.40388      375.49909      18513.004      19332.625     -511.94624    
   4965000   307.76901      384.55726      18496.111      19321.021      29.605817    
   4966000   297.21594      377.56198      18517.103      19319.918     -330.62913    
   4967000   298.99978      375.36075      18519.642      19322.809     -422.55901    
   4968000   298.234        375.4218       18521.809      19323.941     -409.33715    
   4969000   301.7737       387.20495      18500.854      19319.833     -1.9153589    
   4970000   301.95701      385.93795      18496.41       19314.385     -119.31217    
   4971000   292.19237      368.96201      18535.577      19322.605     -809.56723    
   4972000   294.27754      382.50963      18510.465      19314.023     -148.08237    
   4973000   311.10405      387.53269      18480.717      19313.373     -147.69033    
   4974000   303.01219      375.31958      18513.486      19322.352     -303.83885    
   4975000   297.45203      371.23917      18541.73       19338.561     -538.40226    
   4976000   318.57855      374.76755      18512.862      19343.448     -508.81099    
   4977000   304.91896      390.38411      18515.955      19342.613     -6.173108     
   4978000   307.70029      376.69124      18542.498      19359.443     -477.38956    
   4979000   305.91771      366.61176      18552.898      19357.213     -863.87857    
   4980000   308.40322      383.39841      18518.116      19342.775     -175.77381    
   4981000   309.11989      386.58533      18481.624      19310.494     -128.04488    
   4982000   297.99291      370.88412      18505.684      19302.933     -609.70007    
   4983000   287.83551      373.04101      18519.99       19304.863     -467.04645    
   4984000   285.73608      378.88771      18510.476      19298.192     -286.85965    
   4985000   300.20459      385.5568       18489.376      19304.462      17.4848      
   4986000   305.98314      374.10303      18520.423      19332.324     -493.78499    
   4987000   304.87466      367.92577      18533.506      19337.643     -857.95121    
   4988000   297.41628      390.27208      18523.619      19339.431      205.96585    
   4989000   304.95302      383.86526      18529.73       19349.918     -82.217512    
   4990000   303.02326      373.89498      18538.783      19346.241     -635.23653    
   4991000   304.28366      372.5821       18533.449      19341.397     -641.51224    
   4992000   308.47549      393.75516      18504.887      19340.006      117.85751    
   4993000   298.80488      372.369        18536.408      19336.304     -449.6455     
   4994000   303.8015       368.76428      18524.965      19328.405     -506.86716    
   4995000   299.86243      376.64486      18519.521      19325.206     -359.63018    
   4996000   288.97446      389.55073      18511.396      19314.409     -5.311901     
   4997000   290.55556      375.75282      18518.92       19310.396     -455.90028    
   4998000   293.35217      368.38918      18520.462      19308.576     -591.45996    
   4999000   280.66562      383.35314      18515.373      19300.299     -284.85399    
   5000000   288.12608      380.80768      18511.588      19304.643     -25.430176    
Loop time of 12.5021 on 4 procs for 50000 steps with 481 atoms

Performance: 17.277 ns/day, 1.389 hours/ns, 3999.330 timesteps/s, 1.924 Matom-step/s
99.1% CPU use with 4 MPI tasks x no OpenMP threads

MPI task timing breakdown:
Section |  min time  |  avg time  |  max time  |%varavg| %total
---------------------------------------------------------------
Pair    | 1.8925     | 3.1335     | 4.0156     |  46.8 | 25.06
Bond    | 3.9723     | 4.4291     | 4.9294     |  18.4 | 35.43
Neigh   | 0.13741    | 0.13746    | 0.1375     |   0.0 |  1.10
Comm    | 2.8675     | 4.2538     | 5.9466     |  53.6 | 34.02
Output  | 0.0016607  | 0.0023785  | 0.0026839  |   0.9 |  0.02
Modify  | 0.35565    | 0.36219    | 0.36958    |   0.9 |  2.90
Other   |            | 0.1837     |            |       |  1.47

Nlocal:         120.25 ave         128 max         113 min
Histogram: 2 0 0 0 0 0 0 0 1 1
Nghost:         4185.5 ave        4213 max        4158 min
Histogram: 1 0 1 0 0 0 0 1 0 1
Neighs:              0 ave           0 max           0 min
Histogram: 4 0 0 0 0 0 0 0 0 0

Total # of neighbors = 0
Ave neighs/atom = 0
Ave special neighs/atom = 15.567568
Neighbor list builds = 149
Dangerous builds = 0
unfix           myat1
next            cpt
jump            SELF loop
variable        zdes equal  -15+0.30*(${cpt}-1)
variable        zdes equal  -15+0.30*(84-1)
fix             mytth2 H2 spring tether ${k1} 5 5 ${zdes} 0
fix             mytth2 H2 spring tether 0.5 5 5 ${zdes} 0
fix             mytth2 H2 spring tether 0.5 5 5 9.9 0
run             10000
Generated 0 of 1 mixed pair_coeff terms from geometric mixing rule
Per MPI rank memory allocation (min/avg/max) = 14.61 | 14.61 | 14.61 Mbytes
   Step          Temp          E_pair         E_mol          TotEng         Press     
   5000000   288.12608      380.80768      18511.588      19304.643     -25.430176    
   5001000   300.6778       378.56084      18502.799      19311.566     -376.49444    
   5002000   293.72496      366.93827      18547.718      19334.915     -657.85555    
   5003000   307.02725      380.29956      18523.253      19342.844     -362.69128    
   5004000   311.80275      391.79487      18509.815      19347.734      158.79524    
   5005000   309.15992      367.45883      18543.52       19353.321     -777.84762    
   5006000   327.57336      369.53357      18516.973      19355.195     -489.4474     
   5007000   314.49465      383.19344      18497.948      19331.117     -24.964795    
   5008000   298.52921      376.3596       18502.97       19306.462     -378.13584    
   5009000   286.20717      377.57004      18514.863      19301.935     -443.17623    
   5010000   295.50956      365.47411      18509.976      19298.262     -635.74465    
Loop time of 2.48984 on 4 procs for 10000 steps with 481 atoms

Performance: 17.350 ns/day, 1.383 hours/ns, 4016.316 timesteps/s, 1.932 Matom-step/s
99.0% CPU use with 4 MPI tasks x no OpenMP threads

MPI task timing breakdown:
Section |  min time  |  avg time  |  max time  |%varavg| %total
---------------------------------------------------------------
Pair    | 0.38221    | 0.62721    | 0.79544    |  21.6 | 25.19
Bond    | 0.80433    | 0.88817    | 0.98032    |   7.5 | 35.67
Neigh   | 0.024521   | 0.024559   | 0.024579   |   0.0 |  0.99
Comm    | 0.57783    | 0.84006    | 1.1668     |  23.6 | 33.74
Output  | 0.00028604 | 0.00031619 | 0.00039233 |   0.0 |  0.01
Modify  | 0.070398   | 0.072582   | 0.074788   |   0.7 |  2.92
Other   |            | 0.03694    |            |       |  1.48

Nlocal:         120.25 ave         129 max         112 min
Histogram: 1 1 0 0 0 0 0 0 1 1
Nghost:           4157 ave        4179 max        4131 min
Histogram: 1 0 1 0 0 0 0 0 0 2
Neighs:              0 ave           0 max           0 min
Histogram: 4 0 0 0 0 0 0 0 0 0

Total # of neighbors = 0
Ave neighs/atom = 0
Ave special neighs/atom = 15.567568
Neighbor list builds = 27
Dangerous builds = 0
fix             myat1 all ave/time 100 10 1000 v_zave v_zdes file simulation_data/abpot/${cpt}.dat
fix             myat1 all ave/time 100 10 1000 v_zave v_zdes file simulation_data/abpot/84.dat
run             50000
Generated 0 of 1 mixed pair_coeff terms from geometric mixing rule
Per MPI rank memory allocation (min/avg/max) = 14.61 | 14.61 | 14.61 Mbytes
   Step          Temp          E_pair         E_mol          TotEng         Press     
   5010000   295.50956      365.47411      18509.976      19298.262     -635.74465    
   5011000   290.98539      378.87688      18501.573      19296.788     -341.16192    
   5012000   292.63643      381.52698      18511.584      19311.812     -156.62465    
   5013000   302.34875      365.16711      18527.99       19325.755     -663.86313    
   5014000   308.48648      375.02027      18513.406      19329.805     -462.46515    
   5015000   301.77456      380.44911      18515.962      19328.187     -153.95452    
   5016000   300.29476      378.52704      18532.398      19340.583     -282.90121    
   5017000   295.95871      367.35761      18549.835      19340.647     -663.23449    
   5018000   293.30211      375.88117      18531.321      19326.855     -386.2015     
   5019000   287.37799      383.04798      18500.9        19295.125     -85.315991    
   5020000   283.53464      374.15769      18507.112      19286.948     -437.49033    
   5021000   274.53772      373.6363       18515.114      19281.555     -673.78894    
   5022000   293.402        374.11567      18490.669      19284.581     -388.3662     
   5023000   305.5318       380.8612       18482.926      19300.938     -62.670446    
   5024000   291.64621      376.82339      18528.611      19322.718     -544.19987    
   5025000   291.05899      365.8497       18551.361      19333.655     -860.17256    
   5026000   288.64195      388.43706      18538.018      19339.441      27.692227    
   5027000   285.78105      380.64286      18538.001      19327.536     -138.97957    
   5028000   292.49949      366.49162      18543.704      19328.701     -801.5821     
   5029000   307.15359      372.83174      18520.399      19332.703     -547.48177    
   5030000   304.52789      381.9079       18491.516      19309.139     -210.35974    
   5031000   298.85075      382.08464      18481.681      19291.357     -37.896646    
   5032000   286.52146      366.34986      18500.964      19277.266     -559.59589    
   5033000   294.6261       369.21207      18489.032      19279.792     -736.63851    
   5034000   279.04702      393.00899      18484.28       19276.547      185.0175     
   5035000   296.29271      381.46092      18491.383      19296.776     -248.49512    
   5036000   291.53842      368.00879      18530.051      19315.19      -595.56536    
   5037000   297.66318      368.60158      18516.403      19310.897     -613.6314     
   5038000   301.9101       390.16666      18494.565      19316.701      175.0231     
   5039000   308.76923      381.29633      18507.887      19330.967     -271.6281     
   5040000   306.85829      360.1232       18537.497      19336.669     -1008.0409    
   5041000   323.10953      380.82781      18497.397      19340.527     -282.8591     
   5042000   305.8442       391.11034      18510.501      19339.21       73.722171    
   5043000   309.76122      376.18712      18520.068      19339.458     -565.97368    
   5044000   307.09513      363.80986      18531.214      19334.412     -761.79094    
   5045000   302.58592      375.39444      18506.325      19314.656     -509.26273    
   5046000   298.52693      391.53527      18474.393      19293.057      156.62403    
   5047000   290.28339      373.54086      18504.243      19293.118     -379.94647    
   5048000   296.50868      363.05453      18515.913      19303.209     -836.93824    
   5049000   300.18462      381.75559      18487.213      19298.47      -195.49535    
   5050000   301.43118      385.75366      18497.316      19314.354      66.895912    
   5051000   309.1025       376.6078       18520.687      19339.555     -589.64933    
   5052000   309.74725      364.49721      18545.152      19352.832     -732.85514    
   5053000   310.86145      381.09821      18514.361      19340.236     -280.97677    
   5054000   316.03188      385.30919      18500.337      19337.821     -123.55877    
   5055000   300.0338       365.82291      18535.203      19330.311     -746.914      
   5056000   293.81694      371.55284      18532.776      19324.718     -574.31443    
   5057000   294.30083      382.22047      18504.119      19307.422     -114.86176    
   5058000   311.81436      380.58919      18480.972      19307.702     -161.09912    
   5059000   303.68203      369.41426      18504.756      19308.675     -700.63469    
   5060000   306.32523      371.12353      18504.295      19313.705     -543.0522     
Loop time of 12.3603 on 4 procs for 50000 steps with 481 atoms

Performance: 17.475 ns/day, 1.373 hours/ns, 4045.222 timesteps/s, 1.946 Matom-step/s
99.2% CPU use with 4 MPI tasks x no OpenMP threads

MPI task timing breakdown:
Section |  min time  |  avg time  |  max time  |%varavg| %total
---------------------------------------------------------------
Pair    | 1.8559     | 3.1122     | 3.9377     |  49.9 | 25.18
Bond    | 3.9635     | 4.4201     | 4.9186     |  18.4 | 35.76
Neigh   | 0.12674    | 0.12679    | 0.12683    |   0.0 |  1.03
Comm    | 2.8421     | 4.162      | 5.8783     |  54.8 | 33.67
Output  | 0.0016113  | 0.0023713  | 0.0026453  |   0.9 |  0.02
Modify  | 0.34849    | 0.35426    | 0.35896    |   0.6 |  2.87
Other   |            | 0.1825     |            |       |  1.48

Nlocal:         120.25 ave         128 max         113 min
Histogram: 2 0 0 0 0 0 0 0 1 1
Nghost:        4157.75 ave        4179 max        4135 min
Histogram: 2 0 0 0 0 0 0 0 0 2
Neighs:              0 ave           0 max           0 min
Histogram: 4 0 0 0 0 0 0 0 0 0

Total # of neighbors = 0
Ave neighs/atom = 0
Ave special neighs/atom = 15.567568
Neighbor list builds = 138
Dangerous builds = 0
unfix           myat1
next            cpt
jump            SELF loop
variable        zdes equal  -15+0.30*(${cpt}-1)
variable        zdes equal  -15+0.30*(85-1)
fix             mytth2 H2 spring tether ${k1} 5 5 ${zdes} 0
fix             mytth2 H2 spring tether 0.5 5 5 ${zdes} 0
fix             mytth2 H2 spring tether 0.5 5 5 10.2 0
run             10000
Generated 0 of 1 mixed pair_coeff terms from geometric mixing rule
Per MPI rank memory allocation (min/avg/max) = 14.61 | 14.61 | 14.61 Mbytes
   Step          Temp          E_pair         E_mol          TotEng         Press     
   5060000   306.32523      371.12353      18504.295      19313.705     -543.0522     
   5061000   305.89054      388.9965       18484.446      19311.107      12.898513    
   5062000   310.50628      374.74013      18517.919      19336.928     -192.09701    
   5063000   316.53507      361.87151      18547.148      19361.914     -1041.3718    
   5064000   314.52211      383.26119      18536.012      19369.288     -96.539884    
   5065000   312.67408      388.02434      18526.079      19361.474     -9.1755229    
   5066000   303.36229      372.53487      18541.938      19348.52      -610.73891    
   5067000   300.17339      367.76774      18528.528      19325.781     -712.78693    
   5068000   288.95399      383.47068      18515.936      19312.839     -61.026717    
   5069000   286.16017      385.36779      18509.724      19304.527     -167.57455    
   5070000   286.82911      371.87107      18531.969      19314.232     -509.98257    
Loop time of 2.47048 on 4 procs for 10000 steps with 481 atoms

Performance: 17.486 ns/day, 1.372 hours/ns, 4047.792 timesteps/s, 1.947 Matom-step/s
99.2% CPU use with 4 MPI tasks x no OpenMP threads

MPI task timing breakdown:
Section |  min time  |  avg time  |  max time  |%varavg| %total
---------------------------------------------------------------
Pair    | 0.3755     | 0.62275    | 0.8001     |  22.7 | 25.21
Bond    | 0.79568    | 0.88412    | 0.97881    |   7.8 | 35.79
Neigh   | 0.022883   | 0.022893   | 0.022902   |   0.0 |  0.93
Comm    | 0.57604    | 0.83302    | 1.1707     |  24.4 | 33.72
Output  | 0.00029313 | 0.00032483 | 0.00041029 |   0.0 |  0.01
Modify  | 0.068291   | 0.070732   | 0.073196   |   0.8 |  2.86
Other   |            | 0.03665    |            |       |  1.48

Nlocal:         120.25 ave         129 max         112 min
Histogram: 2 0 0 0 0 0 0 0 1 1
Nghost:        4171.25 ave        4196 max        4145 min
Histogram: 1 1 0 0 0 0 0 0 0 2
Neighs:              0 ave           0 max           0 min
Histogram: 4 0 0 0 0 0 0 0 0 0

Total # of neighbors = 0
Ave neighs/atom = 0
Ave special neighs/atom = 15.567568
Neighbor list builds = 25
Dangerous builds = 0
fix             myat1 all ave/time 100 10 1000 v_zave v_zdes file simulation_data/abpot/${cpt}.dat
fix             myat1 all ave/time 100 10 1000 v_zave v_zdes file simulation_data/abpot/85.dat
run             50000
Generated 0 of 1 mixed pair_coeff terms from geometric mixing rule
Per MPI rank memory allocation (min/avg/max) = 14.61 | 14.61 | 14.61 Mbytes
   Step          Temp          E_pair         E_mol          TotEng         Press     
   5070000   286.82911      371.87107      18531.969      19314.232     -509.98257    
   5071000   289.4442       371.38349      18528.346      19313.863     -578.00069    
   5072000   296.15326      380.92912      18498.242      19302.904     -336.09883    
   5073000   305.34916      383.93956      18498.741      19319.571      36.746039    
   5074000   306.1292       367.38354      18538.885      19344.275     -693.95782    
   5075000   316.87463      366.23067      18537.089      19356.701     -637.05877    
   5076000   303.58246      390.12386      18531.544      19356.03       25.530264    
   5077000   324.45612      380.57438      18520.217      19365.02      -51.027634    
   5078000   329.69858      367.9592       18517.321      19357.009     -571.63231    
   5079000   304.45825      367.89774      18534.195      19337.709     -714.8438     
   5080000   295.51895      384.16375      18504.294      19311.283     -139.61598    
   5081000   287.16811      385.7957       18513.889      19310.562     -112.91112    
   5082000   282.64999      365.8497       18541.741      19312.004     -823.03009    
   5083000   306.87562      369.6445       18511.33       19320.048     -635.54088    
   5084000   311.66828      386.55344      18489.473      19321.958      147.32313    
   5085000   307.44335      379.44047      18513.561      19332.888     -281.60208    
   5086000   310.88148      365.68397      18534.562      19345.052     -707.43749    
   5087000   312.22609      383.54374      18527.375      19357.649      9.1699912    
   5088000   299.17011      389.06052      18537.131      19354.241     -226.75614    
   5089000   315.45776      374.63416      18536.172      19362.16      -378.98347    
   5090000   313.08707      368.03981      18544.418      19360.419     -618.1567     
   5091000   308.49796      381.86643      18524.291      19347.553     -125.95077    
   5092000   297.00812      382.66952      18504.109      19311.735     -66.616436    
   5093000   302.86336      372.10931      18511.734      19317.176     -472.57967    
   5094000   302.96582      370.29652      18502.806      19306.583     -557.35       
   5095000   286.78073      382.06294      18506.834      19299.219     -97.409022    
   5096000   283.78295      383.0952       18517.433      19306.561     -88.041516    
   5097000   293.89122      368.39769      18536.409      19325.303     -530.33825    
   5098000   309.60003      370.30779      18530.47       19343.751     -722.46835    
   5099000   306.79639      382.38449      18525.725      19347.07      -6.3402412    
   5100000   323.16768      380.45494      18515.976      19358.816     -296.30441    
   5101000   319.22758      365.10411      18535.979      19357.83      -582.92603    
   5102000   302.64519      376.08858      18539.97       19349.08      -421.02185    
   5103000   302.58406      383.07779      18513.271      19329.282     -231.85082    
   5104000   309.71904      378.96427      18505.479      19327.586     -221.75683    
   5105000   312.65672      367.1899       18515.383      19329.919     -643.987      
   5106000   306.69069      368.61306      18510.957      19318.379     -616.21638    
   5107000   312.69981      387.59764      18482.841      19317.846      112.43961    
   5108000   296.26881      371.7727       18519.395      19315.066     -412.64821    
   5109000   273.12383      366.45891      18550.754      19307.995     -779.17227    
   5110000   294.42067      375.89415      18523.292      19320.44      -393.07363    
   5111000   296.14234      383.30702      18509.113      19316.138     -164.9928     
   5112000   299.54345      374.2985       18526.162      19329.044     -512.88868    
   5113000   323.13181      370.26712      18517.612      19350.212     -529.48947    
   5114000   301.01605      375.75459      18542.829      19349.274     -252.77992    
   5115000   310.28623      388.70014      18520.095      19352.749     -65.189652    
   5116000   310.29936      368.47524      18541.433      19353.881     -639.46506    
   5117000   311.50153      368.93869      18529.936      19344.568     -552.74887    
   5118000   300.09853      379.41556      18498.312      19307.105     -287.68232    
   5119000   294.64363      378.38158      18495.803      19295.757     -32.633446    
   5120000   292.02723      368.50581      18517.037      19303.372     -571.36189    
Loop time of 12.3503 on 4 procs for 50000 steps with 481 atoms

Performance: 17.489 ns/day, 1.372 hours/ns, 4048.481 timesteps/s, 1.947 Matom-step/s
99.0% CPU use with 4 MPI tasks x no OpenMP threads

MPI task timing breakdown:
Section |  min time  |  avg time  |  max time  |%varavg| %total
---------------------------------------------------------------
Pair    | 1.8625     | 3.1098     | 3.9657     |  50.4 | 25.18
Bond    | 3.9779     | 4.4305     | 4.9255     |  18.1 | 35.87
Neigh   | 0.095804   | 0.095848   | 0.095884   |   0.0 |  0.78
Comm    | 2.836      | 4.1615     | 5.8569     |  54.8 | 33.70
Output  | 0.0016292  | 0.0024659  | 0.0027813  |   1.0 |  0.02
Modify  | 0.35538    | 0.3639     | 0.37533    |   1.3 |  2.95
Other   |            | 0.1863     |            |       |  1.51

Nlocal:         120.25 ave         129 max         112 min
Histogram: 1 1 0 0 0 0 0 0 1 1
Nghost:         4158.5 ave        4183 max        4133 min
Histogram: 1 1 0 0 0 0 0 0 0 2
Neighs:              0 ave           0 max           0 min
Histogram: 4 0 0 0 0 0 0 0 0 0

Total # of neighbors = 0
Ave neighs/atom = 0
Ave special neighs/atom = 15.567568
Neighbor list builds = 104
Dangerous builds = 0
unfix           myat1
next            cpt
jump            SELF loop
variable        zdes equal  -15+0.30*(${cpt}-1)
variable        zdes equal  -15+0.30*(86-1)
fix             mytth2 H2 spring tether ${k1} 5 5 ${zdes} 0
fix             mytth2 H2 spring tether 0.5 5 5 ${zdes} 0
fix             mytth2 H2 spring tether 0.5 5 5 10.5 0
run             10000
Generated 0 of 1 mixed pair_coeff terms from geometric mixing rule
Per MPI rank memory allocation (min/avg/max) = 14.61 | 14.61 | 14.61 Mbytes
   Step          Temp          E_pair         E_mol          TotEng         Press     
   5120000   292.02723      368.50581      18517.037      19303.372     -571.36189    
   5121000   289.32553      371.70598      18520.078      19305.748     -539.84769    
   5122000   285.75806      376.52561      18520.841      19306.226     -411.97594    
   5123000   306.10455      379.57108      18502.063      19319.605     -145.92209    
   5124000   304.33216      369.42178      18531.644      19336.501     -651.89206    
   5125000   309.35142      370.6651       18531.588      19344.869     -477.69438    
   5126000   302.77624      388.19861      18529.305      19350.713      53.724188    
   5127000   308.2557       369.89352      18544.716      19355.659     -714.3064     
   5128000   307.95291      373.3733       18552.456      19366.444     -451.12287    
   5129000   317.77419      374.97795      18535.837      19365.483     -345.47277    
   5130000   304.32735      383.54359      18526.546      19345.518     -79.651394    
Loop time of 2.4121 on 4 procs for 10000 steps with 481 atoms

Performance: 17.910 ns/day, 1.340 hours/ns, 4145.774 timesteps/s, 1.994 Matom-step/s
99.4% CPU use with 4 MPI tasks x no OpenMP threads

MPI task timing breakdown:
Section |  min time  |  avg time  |  max time  |%varavg| %total
---------------------------------------------------------------
Pair    | 0.37273    | 0.61448    | 0.79467    |  22.3 | 25.48
Bond    | 0.79583    | 0.88143    | 0.97241    |   7.5 | 36.54
Neigh   | 0.014381   | 0.014403   | 0.014425   |   0.0 |  0.60
Comm    | 0.55645    | 0.79842    | 1.1266     |  24.1 | 33.10
Output  | 0.00026475 | 0.00029358 | 0.00036946 |   0.0 |  0.01
Modify  | 0.066322   | 0.067518   | 0.068678   |   0.4 |  2.80
Other   |            | 0.03555    |            |       |  1.47

Nlocal:         120.25 ave         129 max         112 min
Histogram: 1 0 1 0 0 0 0 1 0 1
Nghost:        4174.25 ave        4203 max        4141 min
Histogram: 1 0 0 0 1 0 0 1 0 1
Neighs:              0 ave           0 max           0 min
Histogram: 4 0 0 0 0 0 0 0 0 0

Total # of neighbors = 0
Ave neighs/atom = 0
Ave special neighs/atom = 15.567568
Neighbor list builds = 16
Dangerous builds = 0
fix             myat1 all ave/time 100 10 1000 v_zave v_zdes file simulation_data/abpot/${cpt}.dat
fix             myat1 all ave/time 100 10 1000 v_zave v_zdes file simulation_data/abpot/86.dat
run             50000
Generated 0 of 1 mixed pair_coeff terms from geometric mixing rule
Per MPI rank memory allocation (min/avg/max) = 14.61 | 14.61 | 14.61 Mbytes
   Step          Temp          E_pair         E_mol          TotEng         Press     
   5130000   304.32735      383.54359      18526.546      19345.518     -79.651394    
   5131000   304.70782      377.12775      18516.055      19329.156     -271.37554    
   5132000   310.13908      364.07835      18500.664      19308.485     -815.67112    
   5133000   308.644        379.15159      18486.17       19306.926     -176.05567    
   5134000   295.30392      383.52969      18495.177      19301.224      22.723701    
   5135000   290.46997      368.51981      18519.641      19303.762     -577.10263    
   5136000   292.4893       367.81281      18530.723      19317.026     -560.17576    
   5137000   305.17186      387.4688       18502.137      19326.242      49.049251    
   5138000   320.70088      374.53945      18510.814      19344.209     -373.37989    
   5139000   300.02727      371.84037      18556.003      19357.119     -507.63768    
   5140000   304.3121       369.90357      18557.162      19362.472     -617.05387    
   5141000   312.11594      382.10842      18516.01       19344.691     -177.54279    
   5142000   301.4189       383.31569      18524.556      19339.139     -111.39558    
   5143000   309.27621      363.31786      18531.71       19337.537     -935.23138    
   5144000   318.72485      372.45295      18502.361      19330.842     -455.22       
   5145000   300.87401      387.15099      18496.683      19314.322      87.752385    
   5146000   302.7898       371.20271      18513.019      19317.45      -437.86303    
   5147000   306.12672      370.30493      18513.043      19321.35      -420.00116    
   5148000   296.52419      369.48735      18529.566      19323.317     -541.69692    
   5149000   300.64845      389.43529      18492.183      19311.783      173.48588    
   5150000   301.58454      374.62969      18517.485      19323.619     -284.27305    
   5151000   307.03229      367.38731      18536.319      19343.005     -519.64923    
   5152000   310.51325      384.51329      18517.584      19346.376     -158.11344    
   5153000   311.29932      381.0002       18531.093      19357.497     -212.97876    
   5154000   300.06493      377.961        18552.693      19359.983     -407.68596    
   5155000   308.0512       368.34444      18545.349      19354.45      -653.35942    
   5156000   293.17569      381.23645      18524.807      19325.516     -236.32032    
   5157000   303.42297      380.45788      18501.92       19316.512     -110.29236    
   5158000   300.3387       369.7052       18510.335      19309.762     -524.69517    
   5159000   295.49963      365.22669      18519.246      19307.271     -721.46612    
   5160000   301.40327      383.74871      18492.118      19307.111     -148.94154    
   5161000   296.06079      386.33687      18504.229      19314.166      1.9513883    
   5162000   291.78539      366.99943      18545.497      19329.98      -762.41067    
   5163000   298.05672      377.39702      18532.984      19336.838     -344.32989    
   5164000   299.29388      382.41227      18529.986      19340.625     -219.57815    
   5165000   296.90789      381.56017      18541.849      19348.221     -248.23822    
   5166000   293.60506      371.09247      18556.411      19347.591     -715.83863    
   5167000   301.08559      376.75943      18538.405      19345.954     -316.51799    
   5168000   293.66832      386.47732      18510.3        19316.955     -31.842694    
   5169000   287.90919      373.89392      18516.642      19302.473     -521.20444    
   5170000   284.41542      366.83919      18521.143      19294.921     -678.48838    
   5171000   295.14085      377.90745      18500.761      19300.953     -205.91181    
   5172000   289.386        387.88591      18500.826      19302.762     -69.078183    
   5173000   303.67996      370.15913      18519.886      19324.547     -549.34999    
   5174000   295.31096      372.06934      18546.132      19340.729     -676.55944    
   5175000   308.32013      385.41123      18517.588      19344.14      -84.384014    
   5176000   315.76765      383.86305      18519.054      19354.714     -65.119955    
   5177000   309.17633      372.17563      18535.949      19350.491     -472.36579    
   5178000   315.59686      372.50399      18520.426      19344.483     -573.33644    
   5179000   299.76177      387.41817      18516.684      19332.998      4.5339886    
   5180000   290.4919       376.94567      18517.469      19310.047     -298.1922     
Loop time of 12.5461 on 4 procs for 50000 steps with 481 atoms

Performance: 17.216 ns/day, 1.394 hours/ns, 3985.293 timesteps/s, 1.917 Matom-step/s
98.6% CPU use with 4 MPI tasks x no OpenMP threads

MPI task timing breakdown:
Section |  min time  |  avg time  |  max time  |%varavg| %total
---------------------------------------------------------------
Pair    | 1.8823     | 3.1483     | 4.0411     |  51.2 | 25.09
Bond    | 4.0141     | 4.4614     | 4.9425     |  18.1 | 35.56
Neigh   | 0.078545   | 0.078652   | 0.078777   |   0.0 |  0.63
Comm    | 2.9638     | 4.2755     | 5.9882     |  54.4 | 34.08
Output  | 0.0017344  | 0.0026244  | 0.0029589  |   1.0 |  0.02
Modify  | 0.38629    | 0.38886    | 0.39243    |   0.4 |  3.10
Other   |            | 0.1908     |            |       |  1.52

Nlocal:         120.25 ave         129 max         112 min
Histogram: 2 0 0 0 0 0 0 0 1 1
Nghost:        4177.25 ave        4206 max        4147 min
Histogram: 1 0 1 0 0 0 0 1 0 1
Neighs:              0 ave           0 max           0 min
Histogram: 4 0 0 0 0 0 0 0 0 0

Total # of neighbors = 0
Ave neighs/atom = 0
Ave special neighs/atom = 15.567568
Neighbor list builds = 84
Dangerous builds = 0
unfix           myat1
next            cpt
jump            SELF loop
variable        zdes equal  -15+0.30*(${cpt}-1)
variable        zdes equal  -15+0.30*(87-1)
fix             mytth2 H2 spring tether ${k1} 5 5 ${zdes} 0
fix             mytth2 H2 spring tether 0.5 5 5 ${zdes} 0
fix             mytth2 H2 spring tether 0.5 5 5 10.8 0
run             10000
Generated 0 of 1 mixed pair_coeff terms from geometric mixing rule
Per MPI rank memory allocation (min/avg/max) = 14.61 | 14.61 | 14.61 Mbytes
   Step          Temp          E_pair         E_mol          TotEng         Press     
   5180000   290.4919       376.94567      18517.469      19310.047     -298.1922     
   5181000   294.50409      366.96213      18505.885      19294.22      -568.01206    
   5182000   291.1497       367.31842      18505.605      19289.497     -589.44047    
   5183000   275.8284       387.235        18507.178      19289.065      6.4839524    
   5184000   297.44304      375.6616       18507.025      19308.265     -312.43615    
   5185000   297.20639      362.83479      18528.315      19316.39      -736.38152    
   5186000   293.27611      379.65083      18523.356      19322.623     -279.83897    
   5187000   297.3393       386.18462      18514.947      19326.561      28.77039     
   5188000   302.83785      372.02209      18529.98       19335.299     -574.07869    
   5189000   293.66655      370.45276      18555.797      19346.425     -566.62019    
   5190000   307.87654      375.12827      18525.149      19340.783     -386.95652    
Loop time of 2.56107 on 4 procs for 10000 steps with 481 atoms

Performance: 16.868 ns/day, 1.423 hours/ns, 3904.611 timesteps/s, 1.878 Matom-step/s
98.0% CPU use with 4 MPI tasks x no OpenMP threads

MPI task timing breakdown:
Section |  min time  |  avg time  |  max time  |%varavg| %total
---------------------------------------------------------------
Pair    | 0.37797    | 0.63862    | 0.831      |  23.7 | 24.94
Bond    | 0.8093     | 0.90035    | 0.99943    |   7.9 | 35.16
Neigh   | 0.015965   | 0.015992   | 0.016021   |   0.0 |  0.62
Comm    | 0.61739    | 0.88264    | 1.2371     |  25.0 | 34.46
Output  | 0.00032725 | 0.00035918 | 0.00044596 |   0.0 |  0.01
Modify  | 0.079837   | 0.083041   | 0.086149   |   1.0 |  3.24
Other   |            | 0.04007    |            |       |  1.56

Nlocal:         120.25 ave         125 max         116 min
Histogram: 1 0 1 0 0 0 1 0 0 1
Nghost:        4165.25 ave        4185 max        4147 min
Histogram: 2 0 0 0 0 0 0 0 1 1
Neighs:              0 ave           0 max           0 min
Histogram: 4 0 0 0 0 0 0 0 0 0

Total # of neighbors = 0
Ave neighs/atom = 0
Ave special neighs/atom = 15.567568
Neighbor list builds = 17
Dangerous builds = 0
fix             myat1 all ave/time 100 10 1000 v_zave v_zdes file simulation_data/abpot/${cpt}.dat
fix             myat1 all ave/time 100 10 1000 v_zave v_zdes file simulation_data/abpot/87.dat
run             50000
Generated 0 of 1 mixed pair_coeff terms from geometric mixing rule
Per MPI rank memory allocation (min/avg/max) = 14.61 | 14.61 | 14.61 Mbytes
   Step          Temp          E_pair         E_mol          TotEng         Press     
   5190000   307.87654      375.12827      18525.149      19340.783     -386.95652    
   5191000   310.5572       387.31737      18502.465      19334.124      124.68826    
   5192000   308.48072      372.67617      18520.825      19334.872     -543.63499    
   5193000   298.2748       364.7002       18519.412      19310.88      -790.32507    
   5194000   277.09315      382.44131      18512.41       19291.313     -208.87404    
   5195000   286.7161       386.31389      18488.567      19285.111      15.591274    
   5196000   277.5107       364.34025      18530.822      19292.221     -725.64855    
   5197000   286.07606      369.64101      18530.928      19309.883     -613.83308    
   5198000   309.48421      380.90292      18500.364      19324.074     -179.54153    
   5199000   308.19889      382.26399      18505.661      19328.892     -52.467187    
   5200000   292.10904      367.03099      18553.705      19338.682     -669.6661     
   5201000   312.67929      367.97362      18528.765      19344.117     -620.47532    
   5202000   294.08228      386.29167      18520.224      19327.285     -184.77243    
   5203000   298.46441      377.85921      18517.838      19322.737     -197.26168    
   5204000   322.13344      368.70011      18498.511      19328.116     -635.07588    
   5205000   296.89262      367.34955      18523.478      19315.618     -352.05258    
   5206000   297.34037      384.28162      18488.802      19298.515      4.7425975    
   5207000   274.29571      377.03371      18507.188      19276.681     -306.64173    
   5208000   277.49876      365.90977      18500.818      19263.77      -649.69106    
   5209000   278.97023      375.16353      18489.169      19263.48      -281.79492    
   5210000   295.15833      380.70483      18473.804      19276.818     -64.154992    
   5211000   286.28826      377.04435      18506.718      19293.381     -167.85758    
   5212000   286.17856      366.33387      18531.749      19307.544     -717.10288    
   5213000   299.01773      376.21474      18504.522      19308.568     -314.74343    
   5214000   298.78613      387.15609      18508.487      19323.143      115.67446    
   5215000   293.88956      371.48939      18537.629      19329.613     -544.50163    
   5216000   308.06038      368.15036      18528.321      19337.241     -662.38739    
   5217000   306.85479      376.33459      18535.058      19350.437     -288.89632    
   5218000   296.93215      383.89052      18529.682      19338.42      -228.29726    
   5219000   319.52605      371.29642      18509.9        19338.371     -486.95101    
   5220000   294.09139      370.40209      18530.331      19321.516     -564.94461    
   5221000   282.59154      380.61702      18512.259      19297.205     -38.402593    
   5222000   287.64112      375.88439      18503.253      19290.691     -362.51256    
   5223000   293.66481      370.10048      18501.419      19291.692     -401.82695    
   5224000   293.70736      367.77588      18513.61       19301.619     -598.54257    
   5225000   301.14703      386.15065      18497.626      19314.655      139.39862    
   5226000   304.97706      371.5034       18519.465      19327.326     -468.07419    
   5227000   293.42618      373.218        18541.616      19334.665     -383.69075    
   5228000   311.28922      371.05643      18521.026      19337.471     -497.41068    
   5229000   308.09943      383.41131      18512.254      19336.49      -50.878532    
   5230000   305.54064      373.96639      18520.794      19331.924     -504.79047    
   5231000   303.4027       373.00635      18528.202      19335.314     -370.12543    
   5232000   299.40469      371.57102      18524.45       19324.406     -449.26773    
   5233000   290.52095      379.97085      18514.54       19310.185     -172.38888    
   5234000   290.91511      374.65843      18511.891      19302.788     -436.68181    
   5235000   296.30393      369.72141      18491.029      19284.699     -443.40318    
   5236000   275.20363      379.14338      18495.65       19268.552     -440.47237    
   5237000   277.16722      379.32322      18494.467      19270.358     -131.69964    
   5238000   299.55476      373.37636      18484.469      19286.445     -401.0795     
   5239000   299.26965      367.48331      18509.885      19305.56      -615.40551    
   5240000   301.74296      375.86235      18499.687      19307.28      -346.51969    
Loop time of 12.4337 on 4 procs for 50000 steps with 481 atoms

Performance: 17.372 ns/day, 1.382 hours/ns, 4021.315 timesteps/s, 1.934 Matom-step/s
98.7% CPU use with 4 MPI tasks x no OpenMP threads

MPI task timing breakdown:
Section |  min time  |  avg time  |  max time  |%varavg| %total
---------------------------------------------------------------
Pair    | 1.8607     | 3.1369     | 4.0759     |  51.7 | 25.23
Bond    | 3.9941     | 4.4483     | 4.9376     |  18.3 | 35.78
Neigh   | 0.069696   | 0.06972    | 0.069743   |   0.0 |  0.56
Comm    | 2.9307     | 4.2094     | 5.9441     |  55.1 | 33.85
Output  | 0.0017033  | 0.0025811  | 0.0028965  |   1.0 |  0.02
Modify  | 0.37241    | 0.3789     | 0.38452    |   0.7 |  3.05
Other   |            | 0.1879     |            |       |  1.51

Nlocal:         120.25 ave         128 max         113 min
Histogram: 2 0 0 0 0 0 0 0 1 1
Nghost:         4170.5 ave        4201 max        4140 min
Histogram: 1 0 0 1 0 0 1 0 0 1
Neighs:              0 ave           0 max           0 min
Histogram: 4 0 0 0 0 0 0 0 0 0

Total # of neighbors = 0
Ave neighs/atom = 0
Ave special neighs/atom = 15.567568
Neighbor list builds = 74
Dangerous builds = 0
unfix           myat1
next            cpt
jump            SELF loop
variable        zdes equal  -15+0.30*(${cpt}-1)
variable        zdes equal  -15+0.30*(88-1)
fix             mytth2 H2 spring tether ${k1} 5 5 ${zdes} 0
fix             mytth2 H2 spring tether 0.5 5 5 ${zdes} 0
fix             mytth2 H2 spring tether 0.5 5 5 11.1 0
run             10000
Generated 0 of 1 mixed pair_coeff terms from geometric mixing rule
Per MPI rank memory allocation (min/avg/max) = 14.61 | 14.61 | 14.61 Mbytes
   Step          Temp          E_pair         E_mol          TotEng         Press     
   5240000   301.74296      375.86235      18499.687      19307.28      -346.51969    
   5241000   308.54575      378.82444      18498.38       19318.668     -154.41254    
   5242000   299.54623      368.15125      18526.098      19322.836     -660.80916    
   5243000   300.93104      372.936        18524.951      19328.455     -337.28348    
   5244000   288.68498      379.97189      18542.304      19335.324     -152.76773    
   5245000   306.98152      377.37974      18521.664      19338.269     -350.65722    
   5246000   305.58555      369.36117      18536.912      19343.501     -592.4562     
   5247000   310.10602      377.08042      18534.831      19355.608     -251.38918    
   5248000   300.17866      380.54919      18538.319      19348.36      -202.85313    
   5249000   299.84075      376.04144      18540.801      19345.851     -237.83115    
   5250000   310.22493      371.94005      18517.986      19333.793     -409.04535    
Loop time of 2.42317 on 4 procs for 10000 steps with 481 atoms

Performance: 17.828 ns/day, 1.346 hours/ns, 4126.826 timesteps/s, 1.985 Matom-step/s
99.6% CPU use with 4 MPI tasks x no OpenMP threads

MPI task timing breakdown:
Section |  min time  |  avg time  |  max time  |%varavg| %total
---------------------------------------------------------------
Pair    | 0.36066    | 0.6119     | 0.78252    |  22.5 | 25.25
Bond    | 0.77908    | 0.8794     | 0.98459    |   8.9 | 36.29
Neigh   | 0.011975   | 0.011983   | 0.011992   |   0.0 |  0.49
Comm    | 0.55365    | 0.81391    | 1.1693     |  25.2 | 33.59
Output  | 0.00024583 | 0.00026933 | 0.00032658 |   0.0 |  0.01
Modify  | 0.066181   | 0.070493   | 0.074742   |   1.5 |  2.91
Other   |            | 0.03521    |            |       |  1.45

Nlocal:         120.25 ave         125 max         116 min
Histogram: 1 1 0 0 0 0 0 1 0 1
Nghost:         4161.5 ave        4184 max        4139 min
Histogram: 1 1 0 0 0 0 0 0 1 1
Neighs:              0 ave           0 max           0 min
Histogram: 4 0 0 0 0 0 0 0 0 0

Total # of neighbors = 0
Ave neighs/atom = 0
Ave special neighs/atom = 15.567568
Neighbor list builds = 13
Dangerous builds = 0
fix             myat1 all ave/time 100 10 1000 v_zave v_zdes file simulation_data/abpot/${cpt}.dat
fix             myat1 all ave/time 100 10 1000 v_zave v_zdes file simulation_data/abpot/88.dat
run             50000
Generated 0 of 1 mixed pair_coeff terms from geometric mixing rule
Per MPI rank memory allocation (min/avg/max) = 14.61 | 14.61 | 14.61 Mbytes
   Step          Temp          E_pair         E_mol          TotEng         Press     
   5250000   310.22493      371.94005      18517.986      19333.793     -409.04535    
   5251000   301.43912      376.73686      18505.254      19313.286     -203.67872    
   5252000   288.73137      379.65985      18505.768      19298.542     -242.02926    
   5253000   284.2243       374.04752      18522.193      19302.906     -361.87443    
   5254000   279.21285      369.07323      18530.653      19299.221     -658.65266    
   5255000   291.36077      372.34071      18522.992      19312.209     -391.59626    
   5256000   289.14137      377.97896      18539.668      19331.347     -313.27293    
   5257000   306.2832       374.67387      18532.385      19345.285     -387.26371    
   5258000   313.96687      365.46654      18541.607      19356.294     -606.3541     
   5259000   313.04759      378.1601       18519.095      19345.16      -416.95302    
   5260000   307.15376      386.60099      18515.399      19341.472      106.38334    
   5261000   292.90099      367.65872      18551.319      19338.057     -707.11946    
   5262000   302.07373      370.3674       18527.833      19330.404     -606.57979    
   5263000   302.74374      377.47729      18515.207      19325.847     -172.35477    
   5264000   291.84702      381.2077       18518.132      19316.912     -143.27498    
   5265000   297.96848      368.41189      18516.221      19310.963     -601.90744    
   5266000   302.69816      365.65336      18518.94       19317.69      -824.97487    
   5267000   294.01589      384.17471      18513.004      19317.854     -3.4113457    
   5268000   276.43438      378.8841       18547.361      19321.764     -408.7054     
   5269000   304.18055      373.39885      18532.371      19340.988     -437.83555    
   5270000   304.71625      375.72665      18538.809      19350.52      -357.49476    
   5271000   301.77545      380.06835      18542.011      19353.857     -305.79279    
   5272000   308.46924      376.49887      18541.607      19359.461     -171.04724    
   5273000   308.68419      366.92453      18541.133      19349.719     -783.00294    
   5274000   287.34173      374.95149      18536.872      19322.948     -417.18593    
   5275000   282.93707      384.87868      18517.525      19307.227      30.000065    
   5276000   284.31067      373.0997       18527.458      19307.346     -321.69757    
   5277000   284.4167       369.50026      18529.411      19305.852     -572.69184    
   5278000   299.54063      376.80173      18503.783      19309.164     -115.12002    
   5279000   299.31401      383.94817      18504.388      19316.591     -118.27567    
   5280000   294.97464      378.32795      18525.216      19325.59      -147.38475    
   5281000   307.4908       368.17503      18524.888      19333.018     -672.95601    
   5282000   291.69177      382.972        18532.232      19332.553     -164.82987    
   5283000   304.8649       382.32169      18520.34       19338.859     -91.068241    
   5284000   308.11671      370.80162      18528.828      19340.479     -528.95666    
   5285000   302.03251      375.2976       18530.31       19337.753     -313.05608    
   5286000   288.78388      382.36656      18536.415      19331.97      -313.20653    
   5287000   303.43189      378.1256       18521.852      19334.125     -363.1315     
   5288000   294.79801      377.53252      18544.039      19343.365     -276.73812    
   5289000   297.07954      365.63452      18552.937      19343.63      -861.77183    
   5290000   307.12931      386.02064      18514.684      19340.142     -44.741043    
   5291000   302.24828      378.87343      18533.891      19345.217     -133.97375    
   5292000   301.8997       368.14478      18550.797      19350.897     -768.05894    
   5293000   312.26301      373.14217      18525.27       19345.194     -487.82211    
   5294000   295.02202      384.75203      18531.008      19337.874     -47.718107    
   5295000   295.32026      373.87262      18521.473      19317.887     -530.38736    
   5296000   298.65361      366.11717      18524.026      19317.453     -753.08589    
   5297000   291.56312      377.24389      18509.486      19303.895     -249.93895    
   5298000   282.64579      379.7233       18516.814      19300.944     -176.67378    
   5299000   287.2019       372.06647      18529.423      19312.415     -477.82524    
   5300000   301.25805      371.73906      18539.787      19342.563     -446.37551    
Loop time of 12.1538 on 4 procs for 50000 steps with 481 atoms

Performance: 17.772 ns/day, 1.350 hours/ns, 4113.940 timesteps/s, 1.979 Matom-step/s
99.5% CPU use with 4 MPI tasks x no OpenMP threads

MPI task timing breakdown:
Section |  min time  |  avg time  |  max time  |%varavg| %total
---------------------------------------------------------------
Pair    | 1.843      | 3.0898     | 4.0027     |  51.0 | 25.42
Bond    | 3.9487     | 4.4038     | 4.8925     |  17.9 | 36.23
Neigh   | 0.066662   | 0.066671   | 0.066676   |   0.0 |  0.55
Comm    | 2.7885     | 4.0635     | 5.7673     |  55.5 | 33.43
Output  | 0.0015434  | 0.0022065  | 0.0024651  |   0.8 |  0.02
Modify  | 0.34499    | 0.34953    | 0.35309    |   0.5 |  2.88
Other   |            | 0.1783     |            |       |  1.47

Nlocal:         120.25 ave         131 max         110 min
Histogram: 2 0 0 0 0 0 0 0 0 2
Nghost:         4167.5 ave        4194 max        4141 min
Histogram: 2 0 0 0 0 0 0 0 0 2
Neighs:              0 ave           0 max           0 min
Histogram: 4 0 0 0 0 0 0 0 0 0

Total # of neighbors = 0
Ave neighs/atom = 0
Ave special neighs/atom = 15.567568
Neighbor list builds = 73
Dangerous builds = 0
unfix           myat1
next            cpt
jump            SELF loop
variable        zdes equal  -15+0.30*(${cpt}-1)
variable        zdes equal  -15+0.30*(89-1)
fix             mytth2 H2 spring tether ${k1} 5 5 ${zdes} 0
fix             mytth2 H2 spring tether 0.5 5 5 ${zdes} 0
fix             mytth2 H2 spring tether 0.5 5 5 11.4 0
run             10000
Generated 0 of 1 mixed pair_coeff terms from geometric mixing rule
Per MPI rank memory allocation (min/avg/max) = 14.61 | 14.61 | 14.61 Mbytes
   Step          Temp          E_pair         E_mol          TotEng         Press     
   5300000   301.25805      371.73906      18539.787      19342.563     -446.37551    
   5301000   301.04485      372.12499      18550.392      19353.249     -616.1693     
   5302000   314.88931      383.09003      18530.683      19364.313      33.176343    
   5303000   305.49507      372.08554      18558.234      19367.419     -464.22815    
   5304000   305.97039      365.85472      18544.402      19348.036     -701.25262    
   5305000   295.7019       382.98015      18534.492      19340.559     -185.21764    
   5306000   306.46468      379.31319      18519.07       19336.869     -142.96995    
   5307000   294.04963      368.85928      18530.975      19320.558     -589.80105    
   5308000   290.08183      375.21912      18529.84       19320.105     -274.65663    
   5309000   292.33325      381.63847      18525.713      19325.619     -114.93707    
   5310000   292.6224       376.38303      18528.36       19323.424     -317.92424    
Loop time of 2.42746 on 4 procs for 10000 steps with 481 atoms

Performance: 17.796 ns/day, 1.349 hours/ns, 4119.528 timesteps/s, 1.981 Matom-step/s
99.4% CPU use with 4 MPI tasks x no OpenMP threads

MPI task timing breakdown:
Section |  min time  |  avg time  |  max time  |%varavg| %total
---------------------------------------------------------------
Pair    | 0.36484    | 0.61652    | 0.79784    |  22.7 | 25.40
Bond    | 0.78666    | 0.88084    | 0.97939    |   8.4 | 36.29
Neigh   | 0.0091871  | 0.0092038  | 0.0092199  |   0.0 |  0.38
Comm    | 0.56553    | 0.81657    | 1.1641     |  24.8 | 33.64
Output  | 0.00027213 | 0.00029866 | 0.00036329 |   0.0 |  0.01
Modify  | 0.066167   | 0.068267   | 0.070339   |   0.7 |  2.81
Other   |            | 0.03576    |            |       |  1.47

Nlocal:         120.25 ave         128 max         112 min
Histogram: 1 1 0 0 0 0 0 0 0 2
Nghost:         4170.5 ave        4201 max        4143 min
Histogram: 1 1 0 0 0 0 0 1 0 1
Neighs:              0 ave           0 max           0 min
Histogram: 4 0 0 0 0 0 0 0 0 0

Total # of neighbors = 0
Ave neighs/atom = 0
Ave special neighs/atom = 15.567568
Neighbor list builds = 10
Dangerous builds = 0
fix             myat1 all ave/time 100 10 1000 v_zave v_zdes file simulation_data/abpot/${cpt}.dat
fix             myat1 all ave/time 100 10 1000 v_zave v_zdes file simulation_data/abpot/89.dat
run             50000
Generated 0 of 1 mixed pair_coeff terms from geometric mixing rule
Per MPI rank memory allocation (min/avg/max) = 14.61 | 14.61 | 14.61 Mbytes
   Step          Temp          E_pair         E_mol          TotEng         Press     
   5310000   292.6224       376.38303      18528.36       19323.424     -317.92424    
   5311000   304.322        371.26261      18528.209      19334.892     -543.17327    
   5312000   321.63924      379.69911      18525.828      19365.725     -150.60878    
   5313000   329.44033      381.52373      18540.227      19393.11      -198.9796     
   5314000   324.26176      379.59533      18545.082      19388.628     -122.1122     
   5315000   325.75981      365.46957      18552.069      19383.632     -614.36429    
   5316000   308.42876      376.62179      18534.333      19352.251     -500.92738    
   5317000   304.8522       385.18002      18511.754      19333.114     -67.456359    
   5318000   309.33485      370.77634      18509.669      19323.039     -435.95396    
   5319000   306.50875      368.96068      18511.48       19318.99      -649.07893    
   5320000   308.58356      379.50708      18492.424      19313.449     -137.0588     
   5321000   291.16767      380.39567      18506.517      19303.512     -103.35957    
   5322000   292.7478       373.00122      18519.929      19311.791     -542.21839    
   5323000   292.51318      371.94762      18524.969      19315.441     -381.44419    
   5324000   302.64642      376.83471      18520.697      19330.555     -423.7622     
   5325000   308.97409      383.40983      18534.167      19359.653     -97.455356    
   5326000   321.4128       367.56017      18535.559      19362.993     -700.35322    
   5327000   312.91988      374.22905      18538.945      19360.897     -394.79369    
   5328000   316.29564      382.0486       18513.967      19348.568     -27.761978    
   5329000   317.65999      373.32525      18513.121      19340.951     -404.48083    
   5330000   306.67079      372.28327      18524.75       19335.814     -365.04976    
   5331000   292.3956       373.83556      18532.838      19325.029     -334.18942    
   5332000   287.7401       378.28285      18530.855      19320.833     -287.94818    
   5333000   296.56035      378.1251       18525.047      19327.487     -240.89466    
   5334000   296.39879      366.04814      18530.453      19320.585     -614.33767    
   5335000   296.73401      377.60458      18523.237      19325.406     -213.90038    
   5336000   311.40339      380.48762      18495.876      19321.916     -180.3511     
   5337000   297.69992      371.83579      18526.014      19323.796     -491.81474    
   5338000   309.43181      372.14148      18530.323      19345.196     -610.17896    
   5339000   309.485        379.58192      18537.404      19359.793     -351.91445    
   5340000   316.75005      380.42059      18529.301      19362.924     -160.56473    
   5341000   314.36634      369.65496      18538.353      19357.8       -582.91714    
   5342000   311.07088      373.08751      18542.769      19360.933     -314.93255    
   5343000   314.73759      376.17003      18509.213      19335.706     -296.24103    
   5344000   295.01721      380.71224      18511.743      19314.562     -126.56933    
   5345000   291.08187      368.93874      18525.86       19311.275     -641.19619    
   5346000   314.23483      367.23711      18492.527      19309.367     -635.02506    
   5347000   303.59594      382.85312      18493.862      19311.097     -44.150073    
   5348000   296.49176      371.73982      18517.746      19313.703     -408.30203    
   5349000   293.43419      368.88407      18541.357      19330.083     -725.42848    
   5350000   312.50838      373.82444      18521.214      19342.172     -347.72696    
   5351000   315.93762      380.36123      18517.563      19349.964     -182.05977    
   5352000   311.38784      382.15837      18553.18       19380.868     -79.117062    
   5353000   321.39278      370.23061      18557.076      19387.152     -607.00551    
   5354000   305.79521      376.31895      18562.647      19376.494     -196.59521    
   5355000   316.27405      381.86636      18518.284      19352.672     -152.56762    
   5356000   294.85425      375.35356      18526.929      19324.157     -250.27554    
   5357000   302.76315      368.61845      18516.18       19317.988     -593.71336    
   5358000   304.579        375.15115      18501.579      19312.518     -225.42923    
   5359000   305.26208      377.24637      18490.997      19305.009     -187.49819    
   5360000   296.69905      370.66342      18511.153      19306.33      -538.8278     
Loop time of 12.2106 on 4 procs for 50000 steps with 481 atoms

Performance: 17.690 ns/day, 1.357 hours/ns, 4094.797 timesteps/s, 1.970 Matom-step/s
99.2% CPU use with 4 MPI tasks x no OpenMP threads

MPI task timing breakdown:
Section |  min time  |  avg time  |  max time  |%varavg| %total
---------------------------------------------------------------
Pair    | 1.8369     | 3.0961     | 4.0182     |  51.2 | 25.36
Bond    | 3.9708     | 4.4216     | 4.9125     |  17.9 | 36.21
Neigh   | 0.04046    | 0.040516   | 0.040574   |   0.0 |  0.33
Comm    | 2.8336     | 4.1099     | 5.8146     |  55.2 | 33.66
Output  | 0.001646   | 0.0023971  | 0.0026979  |   0.9 |  0.02
Modify  | 0.35086    | 0.35778    | 0.36557    |   1.0 |  2.93
Other   |            | 0.1823     |            |       |  1.49

Nlocal:         120.25 ave         126 max         114 min
Histogram: 1 0 1 0 0 0 0 0 1 1
Nghost:        4192.25 ave        4215 max        4172 min
Histogram: 2 0 0 0 0 0 0 0 1 1
Neighs:              0 ave           0 max           0 min
Histogram: 4 0 0 0 0 0 0 0 0 0

Total # of neighbors = 0
Ave neighs/atom = 0
Ave special neighs/atom = 15.567568
Neighbor list builds = 44
Dangerous builds = 0
unfix           myat1
next            cpt
jump            SELF loop
variable        zdes equal  -15+0.30*(${cpt}-1)
variable        zdes equal  -15+0.30*(90-1)
fix             mytth2 H2 spring tether ${k1} 5 5 ${zdes} 0
fix             mytth2 H2 spring tether 0.5 5 5 ${zdes} 0
fix             mytth2 H2 spring tether 0.5 5 5 11.7 0
run             10000
Generated 0 of 1 mixed pair_coeff terms from geometric mixing rule
Per MPI rank memory allocation (min/avg/max) = 14.61 | 14.61 | 14.61 Mbytes
   Step          Temp          E_pair         E_mol          TotEng         Press     
   5360000   296.69905      370.66342      18511.153      19306.33      -538.8278     
   5361000   294.41426      374.66373      18521.759      19317.667     -403.74657    
   5362000   287.66703      377.8404       18542.462      19331.893     -242.36475    
   5363000   312.60785      374.94758      18519.286      19341.509     -370.46678    
   5364000   320.17628      372.6874       18512.992      19343.784     -427.3741     
   5365000   312.43401      371.27271      18534.545      19352.845     -552.72445    
   5366000   301.1093       377.15204      18541.588      19349.564     -452.90947    
   5367000   300.58633      377.37236      18524.372      19331.819     -272.1938     
   5368000   293.09864      367.87089      18519.842      19307.075     -612.92068    
   5369000   286.74437      373.08129      18517.788      19301.139     -426.85151    
   5370000   286.96056      382.49822      18498.578      19291.656     -40.346232    
Loop time of 2.42684 on 4 procs for 10000 steps with 481 atoms

Performance: 17.801 ns/day, 1.348 hours/ns, 4120.587 timesteps/s, 1.982 Matom-step/s
99.4% CPU use with 4 MPI tasks x no OpenMP threads

MPI task timing breakdown:
Section |  min time  |  avg time  |  max time  |%varavg| %total
---------------------------------------------------------------
Pair    | 0.36462    | 0.61611    | 0.79771    |  22.9 | 25.39
Bond    | 0.78698    | 0.87998    | 0.98198    |   8.3 | 36.26
Neigh   | 0.0090724  | 0.0090838  | 0.0090929  |   0.0 |  0.37
Comm    | 0.55741    | 0.81886    | 1.1626     |  25.0 | 33.74
Output  | 0.00028067 | 0.00030622 | 0.00037146 |   0.0 |  0.01
Modify  | 0.065854   | 0.066719   | 0.067567   |   0.2 |  2.75
Other   |            | 0.03577    |            |       |  1.47

Nlocal:         120.25 ave         129 max         112 min
Histogram: 1 1 0 0 0 0 0 0 1 1
Nghost:         4170.5 ave        4197 max        4143 min
Histogram: 1 0 1 0 0 0 0 0 1 1
Neighs:              0 ave           0 max           0 min
Histogram: 4 0 0 0 0 0 0 0 0 0

Total # of neighbors = 0
Ave neighs/atom = 0
Ave special neighs/atom = 15.567568
Neighbor list builds = 10
Dangerous builds = 0
fix             myat1 all ave/time 100 10 1000 v_zave v_zdes file simulation_data/abpot/${cpt}.dat
fix             myat1 all ave/time 100 10 1000 v_zave v_zdes file simulation_data/abpot/90.dat
run             50000
Generated 0 of 1 mixed pair_coeff terms from geometric mixing rule
Per MPI rank memory allocation (min/avg/max) = 14.61 | 14.61 | 14.61 Mbytes
   Step          Temp          E_pair         E_mol          TotEng         Press     
   5370000   286.96056      382.49822      18498.578      19291.656     -40.346232    
   5371000   290.59521      371.82644      18513.817      19301.424     -495.11193    
   5372000   289.01874      371.6172       18535.151      19320.293     -528.96039    
   5373000   318.04974      375.3846       18496.98       19327.427     -450.2383     
   5374000   302.69133      379.73265      18520.837      19333.657     -242.12817    
   5375000   300.64537      380.69286      18531.179      19342.032     -171.80558    
   5376000   299.28937      369.43596      18547.863      19345.519     -564.06276    
   5377000   308.21164      376.01215      18522.47       19339.468     -384.26997    
   5378000   297.98331      384.52268      18522.002      19332.875     -146.12967    
   5379000   299.69116      369.72183      18534.239      19332.755     -746.53702    
   5380000   296.61326      372.31986      18531.454      19328.165     -445.53248    
   5381000   304.45768      374.64495      18517.432      19327.691     -387.99492    
   5382000   309.28722      378.75322      18500.244      19321.521     -259.59031    
   5383000   298.01523      375.06888      18516.229      19317.695     -339.80796    
   5384000   292.97831      371.75741      18526.965      19317.912     -565.26464    
   5385000   287.89424      377.6307       18523.408      19312.954     -247.69222    
   5386000   286.33438      380.70407      18514.475      19304.863     -77.238564    
   5387000   282.89451      369.01512      18536.009      19309.787     -666.53299    
   5388000   301.0771       374.35437      18516.51       19321.642     -356.58785    
   5389000   302.40004      377.24452      18526.008      19335.923     -154.41602    
   5390000   307.39597      374.63042      18530.104      19344.554     -335.64135    
   5391000   312.31153      377.76422      18527.269      19351.885     -395.68296    
   5392000   305.77494      368.53455      18554.801      19360.835     -459.43765    
   5393000   310.17525      380.51656      18525.891      19350.203     -152.03005    
   5394000   298.12212      376.03154      18537.035      19339.617     -364.04236    
   5395000   292.88306      370.42152      18521.393      19310.869     -557.40077    
   5396000   287.945        373.23188      18516.478      19301.699     -413.82051    
   5397000   289.04311      374.72091      18507.71       19295.99      -387.39625    
   5398000   295.87208      374.17848      18505.447      19302.956     -442.43872    
   5399000   292.00945      368.26348      18528.099      19314.166     -509.43044    
   5400000   293.07035      375.3186       18528.531      19323.171     -406.60547    
   5401000   305.82237      374.72079      18523.263      19335.551     -240.24298    
   5402000   314.94482      369.20364      18518.654      19338.477     -514.28834    
   5403000   300.02928      370.2483       18543.63       19343.157     -579.05904    
   5404000   302.4093       379.58937      18529.351      19341.624     -262.50134    
   5405000   294.20815      371.16084      18543.172      19335.283     -515.60808    
   5406000   300.68342      369.36971      18542.94       19342.525     -475.23517    
   5407000   300.4622       377.36562      18517.239      19324.502     -322.84015    
   5408000   302.9109       373.97878      18517          19324.381     -380.94662    
   5409000   278.66074      379.58396      18543.738      19322.027     -154.46135    
   5410000   290.84509      371.42631      18535.321      19322.886     -523.86764    
   5411000   291.04666      372.94197      18531.359      19320.727     -452.09912    
   5412000   296.55077      388.48225      18495.718      19308.502      32.850038    
   5413000   300.61409      369.90561      18497.428      19297.449     -476.14199    
   5414000   283.69822      372.05138      18522.558      19300.521     -438.58979    
   5415000   296.94313      376.62009      18500.56       19302.043     -178.34704    
   5416000   291.98138      374.95749      18511.409      19304.13      -228.03482    
   5417000   299.53139      388.91313      18503.817      19321.296      89.260676    
   5418000   300.43649      364.67047      18541.64       19336.172     -590.07355    
   5419000   306.30531      374.26333      18536.047      19348.569     -531.08354    
   5420000   297.39137      384.27678      18539.318      19349.099     -65.828702    
Loop time of 12.4405 on 4 procs for 50000 steps with 481 atoms

Performance: 17.363 ns/day, 1.382 hours/ns, 4019.136 timesteps/s, 1.933 Matom-step/s
98.9% CPU use with 4 MPI tasks x no OpenMP threads

MPI task timing breakdown:
Section |  min time  |  avg time  |  max time  |%varavg| %total
---------------------------------------------------------------
Pair    | 1.8435     | 3.1255     | 4.0617     |  51.9 | 25.12
Bond    | 3.9818     | 4.4433     | 4.937      |  18.1 | 35.72
Neigh   | 0.054064   | 0.054159   | 0.054242   |   0.0 |  0.44
Comm    | 2.9589     | 4.2532     | 5.9944     |  55.3 | 34.19
Output  | 0.0017008  | 0.0024991  | 0.0027898  |   0.9 |  0.02
Modify  | 0.3687     | 0.37297    | 0.37826    |   0.6 |  3.00
Other   |            | 0.1889     |            |       |  1.52

Nlocal:         120.25 ave         128 max         113 min
Histogram: 1 0 0 0 1 1 0 0 0 1
Nghost:        4186.25 ave        4206 max        4160 min
Histogram: 1 0 0 1 0 0 0 0 0 2
Neighs:              0 ave           0 max           0 min
Histogram: 4 0 0 0 0 0 0 0 0 0

Total # of neighbors = 0
Ave neighs/atom = 0
Ave special neighs/atom = 15.567568
Neighbor list builds = 54
Dangerous builds = 0
unfix           myat1
next            cpt
jump            SELF loop
variable        zdes equal  -15+0.30*(${cpt}-1)
variable        zdes equal  -15+0.30*(91-1)
fix             mytth2 H2 spring tether ${k1} 5 5 ${zdes} 0
fix             mytth2 H2 spring tether 0.5 5 5 ${zdes} 0
fix             mytth2 H2 spring tether 0.5 5 5 12 0
run             10000
Generated 0 of 1 mixed pair_coeff terms from geometric mixing rule
Per MPI rank memory allocation (min/avg/max) = 14.61 | 14.61 | 14.61 Mbytes
   Step          Temp          E_pair         E_mol          TotEng         Press     
   5420000   297.39137      384.27678      18539.318      19349.099     -65.828702    
   5421000   301.72731      377.77835      18533.249      19342.735     -436.99121    
   5422000   294.97649      369.78139      18547.652      19339.483     -488.69159    
   5423000   306.2609       370.61488      18510.892      19319.702     -556.6444     
   5424000   301.76676      381.07503      18488.465      19301.305     -228.8861     
   5425000   288.48134      381.03729      18490.526      19284.32      -148.57126    
   5426000   282.36401      364.91411      18520.864      19289.782     -641.3902     
   5427000   289.40372      372.0214       18510.379      19296.476     -416.82537    
   5428000   301.87268      384.27961      18485.796      19301.992      19.880374    
   5429000   301.46539      370.30767      18522.994      19324.635     -527.68287    
   5430000   285.79854      374.20195      18551.61       19334.729     -443.69176    
Loop time of 2.48412 on 4 procs for 10000 steps with 481 atoms

Performance: 17.390 ns/day, 1.380 hours/ns, 4025.567 timesteps/s, 1.936 Matom-step/s
98.9% CPU use with 4 MPI tasks x no OpenMP threads

MPI task timing breakdown:
Section |  min time  |  avg time  |  max time  |%varavg| %total
---------------------------------------------------------------
Pair    | 0.36495    | 0.62358    | 0.80398    |  23.1 | 25.10
Bond    | 0.79404    | 0.88808    | 0.98833    |   8.4 | 35.75
Neigh   | 0.011319   | 0.011345   | 0.011369   |   0.0 |  0.46
Comm    | 0.59013    | 0.85153    | 1.2066     |  24.9 | 34.28
Output  | 0.00029183 | 0.00031956 | 0.00039217 |   0.0 |  0.01
Modify  | 0.069367   | 0.072151   | 0.074818   |   0.9 |  2.90
Other   |            | 0.03711    |            |       |  1.49

Nlocal:         120.25 ave         125 max         116 min
Histogram: 2 0 0 0 0 0 0 0 1 1
Nghost:        4156.25 ave        4179 max        4134 min
Histogram: 1 1 0 0 0 0 0 0 1 1
Neighs:              0 ave           0 max           0 min
Histogram: 4 0 0 0 0 0 0 0 0 0

Total # of neighbors = 0
Ave neighs/atom = 0
Ave special neighs/atom = 15.567568
Neighbor list builds = 12
Dangerous builds = 0
fix             myat1 all ave/time 100 10 1000 v_zave v_zdes file simulation_data/abpot/${cpt}.dat
fix             myat1 all ave/time 100 10 1000 v_zave v_zdes file simulation_data/abpot/91.dat
run             50000
Generated 0 of 1 mixed pair_coeff terms from geometric mixing rule
Per MPI rank memory allocation (min/avg/max) = 14.61 | 14.61 | 14.61 Mbytes
   Step          Temp          E_pair         E_mol          TotEng         Press     
   5430000   285.79854      374.20195      18551.61       19334.729     -443.69176    
   5431000   300.33759      373.00966      18535.658      19338.387     -450.1504     
   5432000   304.47916      375.44065      18526.209      19337.295     -264.68022    
   5433000   286.13795      374.53379      18560.438      19344.375     -440.76171    
   5434000   299.29318      369.07949      18541.547      19338.851     -555.38293    
   5435000   299.92378      375.89284      18506.267      19311.287     -351.61854    
   5436000   276.40233      376.58088      18517.156      19289.21      -322.46309    
   5437000   279.17868      366.72836      18521.948      19288.122     -524.29983    
   5438000   291.25146      375.25648      18494.744      19286.72      -250.75076    
   5439000   309.28705      376.18117      18472.894      19291.599     -191.11425    
   5440000   297.32718      371.49457      18506.181      19303.088     -409.15982    
   5441000   300.94932      372.3998       18513.993      19316.988     -502.74719    
   5442000   290.04991      373.2574       18537.928      19326.186     -401.66539    
   5443000   301.3375       375.75256      18520.032      19326.935     -302.96037    
   5444000   299.45333      376.20875      18529.439      19334.102     -377.99288    
   5445000   293.14732      372.32209      18538.866      19330.62      -329.34577    
   5446000   299.38514      372.59548      18541.294      19342.246     -420.25547    
   5447000   291.85098      379.28659      18532.172      19329.035      6.4546322    
   5448000   307.23483      374.75294      18506.902      19321.243     -464.25396    
   5449000   269.83983      368.03006      18543.827      19297.941     -633.88626    
   5450000   277.75807      376.46357      18516.784      19290.661     -337.16772    
   5451000   274.79222      379.6861       18509.901      19282.757     -168.04749    
   5452000   289.57112      370.08784      18509.459      19293.862     -427.65652    
   5453000   303.8008       370.58621      18511.554      19316.815     -507.67553    
   5454000   299.18826      379.44275      18520.457      19327.975     -147.9625     
   5455000   302.30847      382.00809      18513.455      19328.003     -172.81494    
   5456000   316.32352      371.04775      18521.621      19345.261     -452.877      
   5457000   304.57284      369.45182      18535.646      19340.877     -446.91393    
   5458000   281.9072       381.10149      18540.298      19324.749     -319.0307     
   5459000   307.20309      377.99405      18507.323      19324.859     -234.05261    
   5460000   301.44788      370.82613      18516.421      19318.555     -468.75326    
   5461000   306.04516      368.84367      18491.63       19298.36      -506.32582    
   5462000   289.78379      381.32758      18480.707      19276.654     -105.04828    
   5463000   282.68389      373.35561      18487.223      19265.04      -496.87184    
   5464000   283.36001      368.05521      18488.557      19262.04      -496.84395    
   5465000   287.6482       377.36337      18492.702      19281.629     -296.22698    
   5466000   291.80043      372.32161      18510.708      19300.534     -388.27759    
   5467000   297.27782      374.39407      18507.408      19307.144     -397.16431    
   5468000   308.502        370.363        18502.522      19314.286     -454.36341    
   5469000   301.8476       372.58384      18518.208      19322.672     -461.1807     
   5470000   290.66734      376.71047      18536.074      19328.668     -233.54304    
   5471000   314.77575      369.91002      18520.207      19340.494     -559.10638    
   5472000   314.83744      372.3016       18517.691      19340.459     -456.25824    
   5473000   316.22919      374.66636      18516.918      19344.042     -367.63705    
   5474000   304.25452      376.68569      18523.791      19335.8       -243.37645    
   5475000   305.37855      373.37007      18520.148      19330.451     -323.82386    
   5476000   298.33228      369.75586      18510.578      19307.184     -495.11528    
   5477000   295.57648      379.65928      18492.426      19294.993      15.013306    
   5478000   288.9406       377.67705      18498.399      19289.489     -384.56405    
   5479000   296.75374      368.00313      18502.329      19294.924     -515.43133    
   5480000   282.37373      375.26853      18526.721      19306.007     -332.58512    
Loop time of 13.0619 on 4 procs for 50000 steps with 481 atoms

Performance: 16.537 ns/day, 1.451 hours/ns, 3827.918 timesteps/s, 1.841 Matom-step/s
97.6% CPU use with 4 MPI tasks x no OpenMP threads

MPI task timing breakdown:
Section |  min time  |  avg time  |  max time  |%varavg| %total
---------------------------------------------------------------
Pair    | 1.9029     | 3.194      | 4.1448     |  52.0 | 24.45
Bond    | 4.0867     | 4.5304     | 5.0163     |  17.4 | 34.68
Neigh   | 0.045691   | 0.045704   | 0.045714   |   0.0 |  0.35
Comm    | 3.2992     | 4.603      | 6.335      |  53.4 | 35.24
Output  | 0.0026608  | 0.0037821  | 0.004224   |   1.1 |  0.03
Modify  | 0.465      | 0.4717     | 0.47883    |   0.8 |  3.61
Other   |            | 0.2134     |            |       |  1.63

Nlocal:         120.25 ave         125 max         116 min
Histogram: 2 0 0 0 0 0 0 0 1 1
Nghost:         4158.5 ave        4185 max        4133 min
Histogram: 1 0 1 0 0 0 0 1 0 1
Neighs:              0 ave           0 max           0 min
Histogram: 4 0 0 0 0 0 0 0 0 0

Total # of neighbors = 0
Ave neighs/atom = 0
Ave special neighs/atom = 15.567568
Neighbor list builds = 47
Dangerous builds = 0
unfix           myat1
next            cpt
jump            SELF loop
variable        zdes equal  -15+0.30*(${cpt}-1)
variable        zdes equal  -15+0.30*(92-1)
fix             mytth2 H2 spring tether ${k1} 5 5 ${zdes} 0
fix             mytth2 H2 spring tether 0.5 5 5 ${zdes} 0
fix             mytth2 H2 spring tether 0.5 5 5 12.3 0
run             10000
Generated 0 of 1 mixed pair_coeff terms from geometric mixing rule
Per MPI rank memory allocation (min/avg/max) = 14.61 | 14.61 | 14.61 Mbytes
   Step          Temp          E_pair         E_mol          TotEng         Press     
   5480000   282.37373      375.26853      18526.721      19306.007     -332.58512    
   5481000   302.89691      380.66707      18503.906      19317.955     -137.15009    
   5482000   281.34356      378.86668      18544.027      19325.437     -270.38303    
   5483000   320.68686      370.65672      18519.521      19349.013     -499.68395    
   5484000   310.35329      374.27233      18530.69       19349.012     -342.44299    
   5485000   299.99257      378.69321      18525.049      19332.969     -273.98016    
   5486000   317.87325      373.55799      18505.038      19333.405     -188.44742    
   5487000   297.31015      369.83043      18530.176      19325.395     -465.79006    
   5488000   299.79477      373.05751      18507.056      19309.056     -402.70899    
   5489000   284.36408      380.53474      18513.217      19300.617     -111.8072     
   5490000   294.48923      377.32082      18506.236      19304.909     -260.93455    
Loop time of 2.66235 on 4 procs for 10000 steps with 481 atoms

Performance: 16.226 ns/day, 1.479 hours/ns, 3756.077 timesteps/s, 1.807 Matom-step/s
96.3% CPU use with 4 MPI tasks x no OpenMP threads

MPI task timing breakdown:
Section |  min time  |  avg time  |  max time  |%varavg| %total
---------------------------------------------------------------
Pair    | 0.37023    | 0.63997    | 0.83128    |  23.8 | 24.04
Bond    | 0.80595    | 0.90237    | 1.0151     |   8.9 | 33.89
Neigh   | 0.011097   | 0.011102   | 0.011106   |   0.0 |  0.42
Comm    | 0.6717     | 0.94894    | 1.3157     |  24.6 | 35.64
Output  | 0.00031363 | 0.00034938 | 0.00044517 |   0.0 |  0.01
Modify  | 0.11402    | 0.11603    | 0.119      |   0.6 |  4.36
Other   |            | 0.04359    |            |       |  1.64

Nlocal:         120.25 ave         130 max         111 min
Histogram: 2 0 0 0 0 0 0 0 1 1
Nghost:        4157.75 ave        4191 max        4126 min
Histogram: 1 0 1 0 0 0 1 0 0 1
Neighs:              0 ave           0 max           0 min
Histogram: 4 0 0 0 0 0 0 0 0 0

Total # of neighbors = 0
Ave neighs/atom = 0
Ave special neighs/atom = 15.567568
Neighbor list builds = 11
Dangerous builds = 0
fix             myat1 all ave/time 100 10 1000 v_zave v_zdes file simulation_data/abpot/${cpt}.dat
fix             myat1 all ave/time 100 10 1000 v_zave v_zdes file simulation_data/abpot/92.dat
run             50000
Generated 0 of 1 mixed pair_coeff terms from geometric mixing rule
Per MPI rank memory allocation (min/avg/max) = 14.61 | 14.61 | 14.61 Mbytes
   Step          Temp          E_pair         E_mol          TotEng         Press     
   5490000   294.48923      377.32082      18506.236      19304.909     -260.93455    
   5491000   287.832        366.39932      18513.674      19291.9       -606.97684    
   5492000   300.47733      375.60052      18488.639      19294.159     -330.31205    
   5493000   299.49855      380.94461      18510.123      19319.587     -157.67581    
   5494000   309.62906      371.25693      18521.035      19335.305     -557.70687    
   5495000   302.71732      369.55478      18546.405      19349.085     -643.00003    
   5496000   326.9428       375.80924      18512.576      19356.171     -263.46872    
   5497000   308.29822      375.09617      18524.608      19340.814     -420.68115    
   5498000   312.35338      373.869        18511.575      19332.356     -409.50388    
   5499000   304.70688      366.31957      18524.418      19326.709     -649.5166     
   5500000   302.00334      377.50642      18507.953      19317.562     -159.72325    
   5501000   298.78109      376.99729      18498.477      19302.967     -274.82972    
   5502000   294.99921      372.49624      18522.334      19316.912     -281.52014    
   5503000   306.65832      370.61278      18509.891      19319.267     -450.72726    
   5504000   303.9646       375.69939      18499.748      19310.357     -165.54595    
   5505000   300.61091      377.78633      18512.193      19320.09      -305.30824    
   5506000   308.99654      366.86542      18510.518      19319.492     -575.33375    
   5507000   297.46452      371.97791      18518.69       19316.277     -503.60958    
   5508000   308.18096      377.99885      18507.927      19326.867     -264.47528    
   5509000   299.24335      370.03251      18531.268      19329.455     -586.69606    
   5510000   295.87308      376.41517      18531.679      19331.426     -337.95596    
   5511000   292.40552      371.9976       18536.132      19326.5       -530.96159    
   5512000   306.02531      379.07046      18514.406      19331.334     -213.112      
   5513000   300.85904      376.06652      18514.992      19321.524     -238.19775    
   5514000   299.68682      362.60017      18522.013      19313.402     -660.83507    
   5515000   296.92462      378.02032      18503.74       19306.597     -270.00686    
   5516000   294.37028      375.96425      18489.903      19287.049     -147.18461    
   5517000   282.47637      368.10089      18516.476      19288.741     -545.42011    
   5518000   296.24535      371.3362       18495.944      19291.144     -436.41011    
   5519000   289.81475      378.11558      18501.336      19294.115     -327.84201    
   5520000   304.57543      377.45726      18502.437      19315.678     -218.13747    
   5521000   322.29661      370.66956      18506.509      19338.317     -487.22722    
   5522000   315.42063      371.16623      18521.846      19344.312     -432.50036    
   5523000   322.35185      380.44529      18497.906      19339.569     -72.862792    
   5524000   301.41486      377.3552       18523.277      19331.893     -241.31109    
   5525000   295.34933      368.5993       18523.704      19314.886     -640.64376    
   5526000   298.00538      372.90124      18504.171      19303.455     -334.36252    
   5527000   280.37869      379.63163      18515.928      19296.722     -298.53073    
   5528000   291.77003      378.57227      18501.593      19297.627     -137.85649    
   5529000   293.45483      367.03851      18512.775      19299.685     -641.79815    
   5530000   293.39491      371.3525       18506.064      19297.202     -420.26262    
   5531000   292.54042      379.61721      18502.244      19300.424     -92.736775    
   5532000   313.73166      374.1865       18486.125      19309.195     -195.88219    
   5533000   314.07897      364.92618      18507.843      19322.15      -606.18396    
   5534000   319.0033       371.58907      18483.379      19311.395     -288.7888     
   5535000   298.68498      387.25633      18491.356      19305.967     -18.880884    
   5536000   308.73237      369.08444      18512.708      19323.523     -374.70889    
   5537000   311.5779       365.2802       18521.139      19332.221     -626.72201    
   5538000   302.63772      378.52819      18527.161      19338.7       -231.04341    
   5539000   305.93106      381.94409      18534.335      19354.002     -139.65585    
   5540000   310.17777      371.54262      18541.781      19357.123     -460.33963    
Loop time of 12.1221 on 4 procs for 50000 steps with 481 atoms

Performance: 17.819 ns/day, 1.347 hours/ns, 4124.692 timesteps/s, 1.984 Matom-step/s
99.4% CPU use with 4 MPI tasks x no OpenMP threads

MPI task timing breakdown:
Section |  min time  |  avg time  |  max time  |%varavg| %total
---------------------------------------------------------------
Pair    | 1.8297     | 3.0777     | 3.9985     |  51.0 | 25.39
Bond    | 3.9764     | 4.408      | 4.8835     |  17.2 | 36.36
Neigh   | 0.050497   | 0.0505     | 0.050503   |   0.0 |  0.42
Comm    | 2.8115     | 4.0597     | 5.7411     |  54.9 | 33.49
Output  | 0.001598   | 0.0023572  | 0.0026629  |   0.9 |  0.02
Modify  | 0.3407     | 0.34501    | 0.34814    |   0.5 |  2.85
Other   |            | 0.1789     |            |       |  1.48

Nlocal:         120.25 ave         128 max         113 min
Histogram: 2 0 0 0 0 0 0 0 0 2
Nghost:        4172.75 ave        4202 max        4143 min
Histogram: 1 0 1 0 0 0 0 1 0 1
Neighs:              0 ave           0 max           0 min
Histogram: 4 0 0 0 0 0 0 0 0 0

Total # of neighbors = 0
Ave neighs/atom = 0
Ave special neighs/atom = 15.567568
Neighbor list builds = 55
Dangerous builds = 0
unfix           myat1
next            cpt
jump            SELF loop
variable        zdes equal  -15+0.30*(${cpt}-1)
variable        zdes equal  -15+0.30*(93-1)
fix             mytth2 H2 spring tether ${k1} 5 5 ${zdes} 0
fix             mytth2 H2 spring tether 0.5 5 5 ${zdes} 0
fix             mytth2 H2 spring tether 0.5 5 5 12.6 0
run             10000
Generated 0 of 1 mixed pair_coeff terms from geometric mixing rule
Per MPI rank memory allocation (min/avg/max) = 14.61 | 14.61 | 14.61 Mbytes
   Step          Temp          E_pair         E_mol          TotEng         Press     
   5540000   310.17777      371.54262      18541.781      19357.123     -460.33963    
   5541000   329.8452       364.51111      18514.883      19351.333     -668.55517    
   5542000   304.83528      380.16399      18514.436      19330.755     -23.422554    
   5543000   308.00617      374.99101      18494.135      19309.818     -337.81687    
   5544000   290.93552      368.30371      18514.546      19299.117     -566.94926    
   5545000   299.86553      371.31473      18506.543      19306.902     -267.59025    
   5546000   289.06802      378.05808      18501.647      19293.3       -254.16643    
   5547000   308.77166      375.41094      18481.52       19298.718     -133.97412    
   5548000   304.15576      367.49757      18509.77       19312.451     -521.92118    
   5549000   298.57557      372.21524      18525.693      19325.107     -408.09046    
   5550000   315.17199      378.72583      18514.068      19343.738     -144.76225    
Loop time of 2.44397 on 4 procs for 10000 steps with 481 atoms

Performance: 17.676 ns/day, 1.358 hours/ns, 4091.700 timesteps/s, 1.968 Matom-step/s
98.7% CPU use with 4 MPI tasks x no OpenMP threads

MPI task timing breakdown:
Section |  min time  |  avg time  |  max time  |%varavg| %total
---------------------------------------------------------------
Pair    | 0.3773     | 0.62172    | 0.80951    |  22.5 | 25.44
Bond    | 0.79881    | 0.88358    | 0.97897    |   7.6 | 36.15
Neigh   | 0.0099912  | 0.0099953  | 0.01       |   0.0 |  0.41
Comm    | 0.57954    | 0.82407    | 1.1537     |  24.0 | 33.72
Output  | 0.00028742 | 0.00032081 | 0.00041108 |   0.0 |  0.01
Modify  | 0.067296   | 0.068159   | 0.068874   |   0.2 |  2.79
Other   |            | 0.03613    |            |       |  1.48

Nlocal:         120.25 ave         130 max         111 min
Histogram: 1 1 0 0 0 0 0 1 0 1
Nghost:        4157.75 ave        4183 max        4135 min
Histogram: 2 0 0 0 0 0 0 0 1 1
Neighs:              0 ave           0 max           0 min
Histogram: 4 0 0 0 0 0 0 0 0 0

Total # of neighbors = 0
Ave neighs/atom = 0
Ave special neighs/atom = 15.567568
Neighbor list builds = 11
Dangerous builds = 0
fix             myat1 all ave/time 100 10 1000 v_zave v_zdes file simulation_data/abpot/${cpt}.dat
fix             myat1 all ave/time 100 10 1000 v_zave v_zdes file simulation_data/abpot/93.dat
run             50000
Generated 0 of 1 mixed pair_coeff terms from geometric mixing rule
Per MPI rank memory allocation (min/avg/max) = 14.61 | 14.61 | 14.61 Mbytes
   Step          Temp          E_pair         E_mol          TotEng         Press     
   5550000   315.17199      378.72583      18514.068      19343.738     -144.76225    
   5551000   306.61844      371.85349      18544.477      19355.037     -423.86077    
   5552000   318.30262      373.70329      18531.511      19360.638     -357.65515    
   5553000   301.17799      373.02142      18538.481      19342.425     -529.52764    
   5554000   298.87336      378.80543      18526.407      19332.837     -236.23811    
   5555000   302.78849      372.59558      18520.545      19326.367     -378.59261    
   5556000   310.94258      367.85978      18505.148      19317.901     -516.69541    
   5557000   295.35258      377.9795       18515.539      19316.106     -315.09637    
   5558000   304.30271      376.1956       18500.732      19312.321     -204.76245    
   5559000   290.29503      372.69381      18518.334      19306.379     -383.88148    
   5560000   291.5199       368.21863      18518.956      19304.279     -603.75602    
   5561000   289.11922      376.88259      18509.245      19299.796     -216.82907    
   5562000   283.98106      379.97621      18504.1        19290.394     -170.13887    
   5563000   292.85513      364.36855      18512.414      19295.797     -685.50816    
   5564000   298.04686      372.6566       18511.896      19310.994     -326.29885    
   5565000   298.51583      378.80154      18509.999      19315.914     -252.1471     
   5566000   306.98507      376.88495      18512.817      19328.933     -44.509483    
   5567000   307.73977      368.19913      18532.859      19341.368     -582.22229    
   5568000   310.1543       370.51711      18527.226      19341.508     -401.90799    
   5569000   310.04947      380.73163      18508.706      19333.053     -245.40017    
   5570000   293.68539      382.51565      18514.425      19317.143     -102.07269    
   5571000   292.20921      364.92778      18517.551      19300.568     -569.7521     
   5572000   287.61568      369.48964      18504.518      19285.525     -442.81751    
   5573000   304.70385      380.38658      18466.75       19283.104     -151.08339    
   5574000   286.23659      375.22667      18502.512      19287.283     -325.58284    
   5575000   294.71031      372.39011      18507.051      19301.109     -511.76566    
   5576000   308.03673      365.16522      18503.052      19308.952     -550.43109    
   5577000   301.15458      382.7273       18502.616      19316.232     -9.3540871    
   5578000   310.85757      381.13642      18501.712      19327.62      -54.604503    
   5579000   307.08949      359.78286      18532.041      19331.204     -891.7123     
   5580000   291.22858      372.96323      18532.063      19321.712     -355.80469    
   5581000   302.03642      381.55248      18501.047      19314.75      -22.955018    
   5582000   299.31451      370.0926       18486.672      19285.021     -492.3267     
   5583000   282.50169      365.53974      18499.126      19268.866     -574.5375     
   5584000   282.32282      376.24394      18485.616      19265.804     -238.27071    
   5585000   299.46271      374.94286      18474.469      19277.88      -166.44483    
   5586000   288.64972      369.52872      18512.258      19294.784     -673.84676    
   5587000   298.03904      367.55831      18513.428      19307.417     -575.35203    
   5588000   298.48342      374.92655      18518.33       19320.323     -251.59552    
   5589000   292.31529      380.67302      18521.436      19320.35      -188.77607    
   5590000   297.25154      363.20727      18538.238      19326.749     -782.36569    
   5591000   314.04066      374.42098      18505.278      19329.025     -384.30004    
   5592000   292.94499      382.35988      18509.516      19311.018     -39.987009    
   5593000   303.17003      369.58613      18492.346      19295.705     -526.76744    
   5594000   303.84042      367.0331       18478.737      19280.501     -499.63936    
   5595000   293.75985      375.32523      18472.602      19268.236     -367.08848    
   5596000   279.06943      379.86809      18487.07       19266.228     -143.26594    
   5597000   284.08351      372.73487      18506.474      19285.673     -308.63864    
   5598000   284.5806       367.38363      18519.654      19294.212     -596.90771    
   5599000   288.42716      378.97915      18506.291      19297.948     -333.48998    
   5600000   293.42837      385.9236       18500.282      19306.039      84.281388    
Loop time of 12.377 on 4 procs for 50000 steps with 481 atoms

Performance: 17.452 ns/day, 1.375 hours/ns, 4039.750 timesteps/s, 1.943 Matom-step/s
99.1% CPU use with 4 MPI tasks x no OpenMP threads

MPI task timing breakdown:
Section |  min time  |  avg time  |  max time  |%varavg| %total
---------------------------------------------------------------
Pair    | 1.8325     | 3.095      | 4.0046     |  51.5 | 25.01
Bond    | 3.9652     | 4.4331     | 4.9603     |  18.7 | 35.82
Neigh   | 0.063157   | 0.063218   | 0.063275   |   0.0 |  0.51
Comm    | 2.8975     | 4.2338     | 5.9617     |  55.6 | 34.21
Output  | 0.0019333  | 0.0027852  | 0.0030833  |   0.9 |  0.02
Modify  | 0.35923    | 0.3635     | 0.36841    |   0.6 |  2.94
Other   |            | 0.1856     |            |       |  1.50

Nlocal:         120.25 ave         127 max         113 min
Histogram: 2 0 0 0 0 0 0 0 0 2
Nghost:         4167.5 ave        4190 max        4143 min
Histogram: 1 1 0 0 0 0 0 0 0 2
Neighs:              0 ave           0 max           0 min
Histogram: 4 0 0 0 0 0 0 0 0 0

Total # of neighbors = 0
Ave neighs/atom = 0
Ave special neighs/atom = 15.567568
Neighbor list builds = 69
Dangerous builds = 0
unfix           myat1
next            cpt
jump            SELF loop
variable        zdes equal  -15+0.30*(${cpt}-1)
variable        zdes equal  -15+0.30*(94-1)
fix             mytth2 H2 spring tether ${k1} 5 5 ${zdes} 0
fix             mytth2 H2 spring tether 0.5 5 5 ${zdes} 0
fix             mytth2 H2 spring tether 0.5 5 5 12.9 0
run             10000
Generated 0 of 1 mixed pair_coeff terms from geometric mixing rule
Per MPI rank memory allocation (min/avg/max) = 14.61 | 14.61 | 14.61 Mbytes
   Step          Temp          E_pair         E_mol          TotEng         Press     
   5600000   293.42837      385.9236       18500.282      19306.039      84.281388    
   5601000   318.66956      371.32926      18493.675      19320.953     -414.49438    
   5602000   307.9185       367.07875      18520.151      19327.796     -543.96642    
   5603000   301.48994      382.9868       18512.458      19326.813     -155.58899    
   5604000   308.3994       384.13611      18511.074      19336.464      68.580253    
   5605000   306.55286      368.84829      18526.46       19333.921     -551.07536    
   5606000   306.17021      364.80941      18527.044      19329.919     -577.6631     
   5607000   308.96805      386.02163      18492.323      19320.413      198.83919    
   5608000   291.95512      373.98515      18514.91       19306.621     -335.55073    
   5609000   287.62013      366.25685      18517.434      19295.214     -548.15215    
   5610000   285.6535       369.58293      18507.423      19285.716     -413.05447    
Loop time of 2.4158 on 4 procs for 10000 steps with 481 atoms

Performance: 17.882 ns/day, 1.342 hours/ns, 4139.416 timesteps/s, 1.991 Matom-step/s
99.4% CPU use with 4 MPI tasks x no OpenMP threads

MPI task timing breakdown:
Section |  min time  |  avg time  |  max time  |%varavg| %total
---------------------------------------------------------------
Pair    | 0.37001    | 0.6156     | 0.80669    |  22.8 | 25.48
Bond    | 0.79703    | 0.88135    | 0.97057    |   7.2 | 36.48
Neigh   | 0.011716   | 0.011743   | 0.011772   |   0.0 |  0.49
Comm    | 0.56592    | 0.80424    | 1.1354     |  24.4 | 33.29
Output  | 0.00027221 | 0.00031504 | 0.00039858 |   0.0 |  0.01
Modify  | 0.065641   | 0.067072   | 0.068494   |   0.5 |  2.78
Other   |            | 0.03547    |            |       |  1.47

Nlocal:         120.25 ave         125 max         115 min
Histogram: 1 1 0 0 0 0 0 0 0 2
Nghost:         4152.5 ave        4190 max        4117 min
Histogram: 1 0 0 0 2 0 0 0 0 1
Neighs:              0 ave           0 max           0 min
Histogram: 4 0 0 0 0 0 0 0 0 0

Total # of neighbors = 0
Ave neighs/atom = 0
Ave special neighs/atom = 15.567568
Neighbor list builds = 13
Dangerous builds = 0
fix             myat1 all ave/time 100 10 1000 v_zave v_zdes file simulation_data/abpot/${cpt}.dat
fix             myat1 all ave/time 100 10 1000 v_zave v_zdes file simulation_data/abpot/94.dat
run             50000
Generated 0 of 1 mixed pair_coeff terms from geometric mixing rule
Per MPI rank memory allocation (min/avg/max) = 14.61 | 14.61 | 14.61 Mbytes
   Step          Temp          E_pair         E_mol          TotEng         Press     
   5610000   285.6535       369.58293      18507.423      19285.716     -413.05447    
   5611000   294.64429      377.5199       18487.986      19287.08      -190.96177    
   5612000   306.68852      377.73096      18484.526      19301.063     -315.27133    
   5613000   303.3858       362.31455      18532.674      19329.07      -697.91743    
   5614000   307.74763      370.14386      18526.312      19336.778     -564.33328    
   5615000   291.88355      385.73649      18533.816      19337.176      113.00436    
   5616000   307.40871      371.63301      18525.414      19336.884     -609.29122    
   5617000   305.72799      364.42812      18534.74       19336.6       -739.7394     
   5618000   304.31412      377.11013      18510.797      19323.316     -323.26485    
   5619000   291.89503      376.84392      18517.405      19311.889     -329.7533     
   5620000   304.93328      369.56732      18499.097      19304.959     -529.01085    
   5621000   289.98778      366.831        18519.733      19301.475     -652.59925    
   5622000   285.39485      374.09228      18520.016      19302.448     -387.47306    
   5623000   298.62843      383.60002      18492.06       19302.934     -63.986727    
   5624000   298.42305      360.2455       18521.191      19308.416     -801.6388     
   5625000   299.88019      372.47345      18506.142      19307.681     -373.07985    
   5626000   292.63037      382.75456      18510.937      19312.384      56.160394    
   5627000   284.90375      372.52667      18532.838      19313.002     -355.15083    
   5628000   297.32675      365.53726      18531.79       19322.739     -681.81756    
   5629000   299.51261      371.39328      18524.265      19324.197     -347.58945    
   5630000   315.75876      386.94433      18484.086      19322.815      71.177684    
   5631000   297.21038      373.38161      18534.329      19332.956     -334.12855    
   5632000   311.2847       363.00316      18535.728      19344.114     -729.94822    
   5633000   322.25995      376.25652      18517.895      19355.237     -235.91313    
   5634000   314.63652      379.49039      18509.718      19339.387     -138.83599    
   5635000   301.62815      375.08418      18525.499      19332.149     -419.80573    
   5636000   303.09524      364.43382      18519.709      19317.808     -774.96127    
   5637000   297.72225      376.90583      18493.689      19296.572     -326.95967    
   5638000   291.79748      384.66441      18489.955      19292.12      -33.693546    
   5639000   294.23863      369.9428       18503.791      19294.727     -496.34209    
   5640000   289.95419      366.99838      18517.23       19299.091     -650.29754    
   5641000   283.0955       380.32664      18516.014      19301.391     -135.23975    
   5642000   291.91799      380.73157      18518.435      19316.84      -105.70463    
   5643000   299.08975      370.37651      18541.364      19339.675     -658.46747    
   5644000   301.87927      368.17745      18547.848      19347.951     -652.62329    
   5645000   314.59295      379.4747       18525.162      19354.753     -140.96964    
   5646000   326.09561      376.14567      18508.469      19351.188     -289.22326    
   5647000   305.31988      369.78698      18532.762      19339.397     -580.28836    
   5648000   318.74926      369.15181      18506.645      19331.859     -604.78915    
   5649000   302.9091       381.84541      18504.039      19319.284     -148.53788    
   5650000   309.24995      378.92222      18494.341      19315.735     -289.69299    
   5651000   303.39702      363.50301      18508.684      19306.284     -740.99512    
   5652000   310.28708      374.49748      18487.655      19306.108     -281.63254    
   5653000   282.69024      382.90169      18502.028      19289.399      56.915299    
   5654000   289.2852       374.81858      18499.537      19288.262     -294.17416    
   5655000   291.10949      367.35251      18521.459      19305.328     -670.18817    
   5656000   304.90906      375.39091      18504.34       19315.991     -337.68769    
   5657000   304.99464      383.58819      18514.489      19334.46       53.214735    
   5658000   320.76226      374.39773      18521.15       19354.49      -370.67519    
   5659000   313.06893      363.9067       18541.421      19353.263     -749.32032    
   5660000   305.42813      376.33798      18528.987      19342.328     -369.85499    
Loop time of 12.4648 on 4 procs for 50000 steps with 481 atoms

Performance: 17.329 ns/day, 1.385 hours/ns, 4011.298 timesteps/s, 1.929 Matom-step/s
98.3% CPU use with 4 MPI tasks x no OpenMP threads

MPI task timing breakdown:
Section |  min time  |  avg time  |  max time  |%varavg| %total
---------------------------------------------------------------
Pair    | 1.8541     | 3.1123     | 4.0381     |  51.1 | 24.97
Bond    | 4.0119     | 4.44       | 4.9129     |  17.6 | 35.62
Neigh   | 0.068842   | 0.068869   | 0.068896   |   0.0 |  0.55
Comm    | 2.98       | 4.2466     | 5.9316     |  53.7 | 34.07
Output  | 0.0043142  | 0.0046945  | 0.0048314  |   0.3 |  0.04
Modify  | 0.39474    | 0.40089    | 0.41239    |   1.1 |  3.22
Other   |            | 0.1914     |            |       |  1.54

Nlocal:         120.25 ave         127 max         114 min
Histogram: 2 0 0 0 0 0 0 0 0 2
Nghost:         4161.5 ave        4192 max        4129 min
Histogram: 1 0 0 1 0 0 1 0 0 1
Neighs:              0 ave           0 max           0 min
Histogram: 4 0 0 0 0 0 0 0 0 0

Total # of neighbors = 0
Ave neighs/atom = 0
Ave special neighs/atom = 15.567568
Neighbor list builds = 75
Dangerous builds = 0
unfix           myat1
next            cpt
jump            SELF loop
variable        zdes equal  -15+0.30*(${cpt}-1)
variable        zdes equal  -15+0.30*(95-1)
fix             mytth2 H2 spring tether ${k1} 5 5 ${zdes} 0
fix             mytth2 H2 spring tether 0.5 5 5 ${zdes} 0
fix             mytth2 H2 spring tether 0.5 5 5 13.2 0
run             10000
Generated 0 of 1 mixed pair_coeff terms from geometric mixing rule
Per MPI rank memory allocation (min/avg/max) = 14.61 | 14.61 | 14.61 Mbytes
   Step          Temp          E_pair         E_mol          TotEng         Press     
   5660000   305.42813      376.33798      18528.987      19342.328     -369.85499    
   5661000   307.45561      389.54989      18499.482      19328.936      132.5454     
   5662000   309.6343       367.34719      18508.477      19318.845     -619.47312    
   5663000   297.6798       366.5362       18522.874      19315.327     -721.16549    
   5664000   301.31491      381.30181      18497.542      19309.962     -80.51961     
   5665000   284.95328      382.6582       18519.303      19309.67      -65.099779    
   5666000   296.0738       364.36744      18524.736      19312.722     -755.25348    
   5667000   297.67544      367.82616      18515.664      19309.401     -493.16769    
   5668000   306.19931      384.29484      18490.08       19312.481     -167.98249    
   5669000   301.92049      380.06761      18508.458      19320.51      -85.758414    
   5670000   294.49321      364.94403      18542.115      19328.417     -751.91849    
Loop time of 2.59327 on 4 procs for 10000 steps with 481 atoms

Performance: 16.659 ns/day, 1.441 hours/ns, 3856.140 timesteps/s, 1.855 Matom-step/s
97.9% CPU use with 4 MPI tasks x no OpenMP threads

MPI task timing breakdown:
Section |  min time  |  avg time  |  max time  |%varavg| %total
---------------------------------------------------------------
Pair    | 0.37899    | 0.63679    | 0.82022    |  23.2 | 24.56
Bond    | 0.82188    | 0.90022    | 0.99541    |   7.8 | 34.71
Neigh   | 0.012802   | 0.012824   | 0.012845   |   0.0 |  0.49
Comm    | 0.65172    | 0.91309    | 1.2509     |  23.3 | 35.21
Output  | 0.00035163 | 0.00038457 | 0.00046938 |   0.0 |  0.01
Modify  | 0.086903   | 0.087995   | 0.089324   |   0.4 |  3.39
Other   |            | 0.04196    |            |       |  1.62

Nlocal:         120.25 ave         129 max         112 min
Histogram: 2 0 0 0 0 0 0 0 1 1
Nghost:         4167.5 ave        4195 max        4137 min
Histogram: 1 0 1 0 0 0 0 0 1 1
Neighs:              0 ave           0 max           0 min
Histogram: 4 0 0 0 0 0 0 0 0 0

Total # of neighbors = 0
Ave neighs/atom = 0
Ave special neighs/atom = 15.567568
Neighbor list builds = 13
Dangerous builds = 0
fix             myat1 all ave/time 100 10 1000 v_zave v_zdes file simulation_data/abpot/${cpt}.dat
fix             myat1 all ave/time 100 10 1000 v_zave v_zdes file simulation_data/abpot/95.dat
run             50000
Generated 0 of 1 mixed pair_coeff terms from geometric mixing rule
Per MPI rank memory allocation (min/avg/max) = 14.61 | 14.61 | 14.61 Mbytes
   Step          Temp          E_pair         E_mol          TotEng         Press     
   5670000   294.49321      364.94403      18542.115      19328.417     -751.91849    
   5671000   298.72912      369.02966      18528.514      19324.962     -567.88298    
   5672000   303.10861      384.87807      18498.186      19316.749     -86.336889    
   5673000   312.58868      380.89265      18505.072      19333.213     -230.13266    
   5674000   298.05852      359.87851      18558.989      19345.326     -790.1159     
   5675000   316.63533      376.03411      18518.017      19347.089     -224.32794    
   5676000   295.86983      377.2605       18541.046      19341.634     -377.91917    
   5677000   312.05935      378.57336      18516.38       19341.445     -173.03065    
   5678000   308.37721      363.80528      18527.543      19332.571     -794.47039    
   5679000   301.44082      368.76313      18519.46       19319.521     -432.02269    
   5680000   308.73504      385.38175      18474.963      19302.079      52.896264    
   5681000   296.51576      368.75575      18504.31       19297.317     -431.94979    
   5682000   294.88519      368.67843      18507.093      19297.69      -739.47736    
   5683000   291.02364      378.76075      18505.48       19300.634     -109.11269    
   5684000   295.65776      378.70626      18514.135      19315.865     -149.76187    
   5685000   300.87062      369.29078      18547.297      19347.07      -514.79075    
   5686000   332.0533       370.20283      18508.222      19353.523     -560.20813    
   5687000   309.2105       381.27829      18520.323      19344.017     -99.488551    
   5688000   311.16291      376.80913      18519.823      19341.84      -204.85299    
   5689000   310.81354      362.48713      18527.401      19334.597     -716.31808    
   5690000   297.02721      369.74063      18523.219      19317.943     -679.07693    
   5691000   297.49239      388.75986      18486.505      19300.914      162.8762     
   5692000   296.07679      370.78127      18519.958      19314.363     -480.59684    
   5693000   296.62009      363.61528      18527.186      19315.202     -680.86469    
   5694000   309.84487      373.42516      18512.442      19329.19      -303.07345    
   5695000   316.88478      382.92494      18516.048      19352.368     -35.86368     
   5696000   315.55595      376.06785      18543.274      19370.835     -209.93237    
   5697000   295.4289       361.24793      18586.08       19370.024     -861.47435    
   5698000   317.83292      374.53458      18532.802      19362.088     -294.28234    
   5699000   306.02057      384.51675      18519.26       19341.628     -68.098679    
   5700000   306.06463      373.6093       18515.185      19326.708     -284.14915    
   5701000   303.78411      359.83423      18531.421      19325.906     -817.29864    
   5702000   301.40482      372.81188      18513.95       19318.008     -377.40449    
   5703000   282.98837      384.27033      18526.058      19315.225      72.078174    
   5704000   297.85793      365.32134      18533.302      19324.795     -680.89588    
   5705000   308.40108      367.1893       18526.782      19335.228     -583.76247    
   5706000   309.56581      378.65336      18518.056      19339.633     -307.41372    
   5707000   320.92286      378.57883      18530.052      19367.804     -170.1669     
   5708000   316.92474      371.57337      18565.106      19390.132     -624.29719    
   5709000   328.57453      367.22413      18549.035      19386.38      -550.89748    
   5710000   311.00689      380.9375       18536.765      19362.688     -218.45396    
   5711000   302.72102      380.61157      18539.502      19353.243     -42.622044    
   5712000   303.69574      364.63304      18542.18       19341.337     -667.38311    
   5713000   310.14439      372.60684      18515.45       19331.808     -433.20335    
   5714000   309.18816      384.32464      18500.094      19326.801     -12.412246    
   5715000   286.4381       367.20024      18532.325      19309.358     -556.28133    
   5716000   303.09565      369.46515      18502.486      19305.617     -558.47907    
   5717000   294.63527      373.654        18508.363      19303.578     -239.21581    
   5718000   288.8835       378.08702      18503.663      19295.082     -242.44415    
   5719000   288.47532      373.66148      18518.978      19305.387     -408.66097    
   5720000   300.95313      365.2597       18531.822      19327.682     -604.81987    
Loop time of 12.638 on 4 procs for 50000 steps with 481 atoms

Performance: 17.091 ns/day, 1.404 hours/ns, 3956.313 timesteps/s, 1.903 Matom-step/s
98.5% CPU use with 4 MPI tasks x no OpenMP threads

MPI task timing breakdown:
Section |  min time  |  avg time  |  max time  |%varavg| %total
---------------------------------------------------------------
Pair    | 1.8523     | 3.1302     | 4.051      |  51.6 | 24.77
Bond    | 4.0064     | 4.4642     | 4.9811     |  18.5 | 35.32
Neigh   | 0.052621   | 0.05265    | 0.052684   |   0.0 |  0.42
Comm    | 3.0684     | 4.39       | 6.1295     |  54.5 | 34.74
Output  | 0.0037584  | 0.0043999  | 0.0046625  |   0.6 |  0.03
Modify  | 0.39439    | 0.401      | 0.4059     |   0.7 |  3.17
Other   |            | 0.1956     |            |       |  1.55

Nlocal:         120.25 ave         131 max         110 min
Histogram: 1 0 1 0 0 0 1 0 0 1
Nghost:        4148.75 ave        4173 max        4121 min
Histogram: 1 0 1 0 0 0 0 0 0 2
Neighs:              0 ave           0 max           0 min
Histogram: 4 0 0 0 0 0 0 0 0 0

Total # of neighbors = 0
Ave neighs/atom = 0
Ave special neighs/atom = 15.567568
Neighbor list builds = 56
Dangerous builds = 0
unfix           myat1
next            cpt
jump            SELF loop
variable        zdes equal  -15+0.30*(${cpt}-1)
variable        zdes equal  -15+0.30*(96-1)
fix             mytth2 H2 spring tether ${k1} 5 5 ${zdes} 0
fix             mytth2 H2 spring tether 0.5 5 5 ${zdes} 0
fix             mytth2 H2 spring tether 0.5 5 5 13.5 0
run             10000
Generated 0 of 1 mixed pair_coeff terms from geometric mixing rule
Per MPI rank memory allocation (min/avg/max) = 14.61 | 14.61 | 14.61 Mbytes
   Step          Temp          E_pair         E_mol          TotEng         Press     
   5720000   300.95313      365.2597       18531.822      19327.682     -604.81987    
   5721000   305.67868      375.49999      18533.537      19346.398     -351.9615     
   5722000   299.41727      380.16501      18542.689      19351.256     -77.107297    
   5723000   320.08378      368.40072      18526.27       19352.643     -489.11219    
   5724000   317.0822       368.89069      18524.169      19346.737     -480.7963     
   5725000   299.69898      377.75009      18521.219      19327.775     -138.10319    
   5726000   293.49869      377.61796      18517.742      19315.294     -204.64464    
   5727000   296.85913      370.76169      18516.368      19311.872     -412.46008    
   5728000   306.01649      366.14511      18505.944      19309.934     -489.66478    
   5729000   310.2311       378.46363      18479.148      19301.487     -88.747897    
   5730000   302.39861      378.95525      18501.931      19313.555     -146.53742    
Loop time of 2.48133 on 4 procs for 10000 steps with 481 atoms

Performance: 17.410 ns/day, 1.379 hours/ns, 4030.089 timesteps/s, 1.938 Matom-step/s
99.0% CPU use with 4 MPI tasks x no OpenMP threads

MPI task timing breakdown:
Section |  min time  |  avg time  |  max time  |%varavg| %total
---------------------------------------------------------------
Pair    | 0.3724     | 0.6224     | 0.81137    |  22.9 | 25.08
Bond    | 0.80122    | 0.8894     | 0.98345    |   7.7 | 35.84
Neigh   | 0.01095    | 0.010972   | 0.010993   |   0.0 |  0.44
Comm    | 0.59501    | 0.84399    | 1.1818     |  24.2 | 34.01
Output  | 0.00030592 | 0.00033632 | 0.0004165  |   0.0 |  0.01
Modify  | 0.076299   | 0.076873   | 0.077714   |   0.2 |  3.10
Other   |            | 0.03737    |            |       |  1.51

Nlocal:         120.25 ave         130 max         111 min
Histogram: 2 0 0 0 0 0 0 0 1 1
Nghost:        4175.75 ave        4205 max        4148 min
Histogram: 1 1 0 0 0 0 0 1 0 1
Neighs:              0 ave           0 max           0 min
Histogram: 4 0 0 0 0 0 0 0 0 0

Total # of neighbors = 0
Ave neighs/atom = 0
Ave special neighs/atom = 15.567568
Neighbor list builds = 12
Dangerous builds = 0
fix             myat1 all ave/time 100 10 1000 v_zave v_zdes file simulation_data/abpot/${cpt}.dat
fix             myat1 all ave/time 100 10 1000 v_zave v_zdes file simulation_data/abpot/96.dat
run             50000
Generated 0 of 1 mixed pair_coeff terms from geometric mixing rule
Per MPI rank memory allocation (min/avg/max) = 14.61 | 14.61 | 14.61 Mbytes
   Step          Temp          E_pair         E_mol          TotEng         Press     
   5730000   302.39861      378.95525      18501.931      19313.555     -146.53742    
   5731000   300.00473      368.16687      18524.389      19321.8       -644.75011    
   5732000   289.48662      372.78428      18538.35       19325.328     -327.00153    
   5733000   297.22748      379.83353      18523.253      19328.356     -96.889403    
   5734000   321.26324      373.66589      18511.196      19344.522     -387.41805    
   5735000   314.10413      368.80181      18552.981      19371.2       -566.70292    
   5736000   320.23521      371.19417      18546.94       19376.323     -486.47385    
   5737000   328.16936      381.74189      18513.692      19364.975      65.946805    
   5738000   317.56316      374.09195      18511.489      19339.947     -315.44096    
   5739000   310.35347      361.74324      18518.697      19324.491     -564.15514    
   5740000   307.85477      376.83013      18499.505      19316.811     -160.19969    
   5741000   305.50573      379.58643      18496.339      19313.04      -134.78581    
   5742000   291.42294      371.45826      18522.778      19311.201     -516.90921    
   5743000   298.32004      368.74058      18516.66       19312.234     -543.19341    
   5744000   287.97776      380.5881       18516.338      19308.961     -140.96346    
   5745000   296.59779      379.46703      18503.061      19306.896     -150.01479    
   5746000   297.74981      369.46681      18513.522      19309.006     -656.03291    
   5747000   292.82982      372.41395      18528.558      19319.95      -431.87758    
   5748000   310.88783      379.2858       18502.998      19327.099     -280.97828    
   5749000   305.94917      377.30219      18522.965      19338.016     -223.53363    
   5750000   315.11486      366.15064      18540.132      19357.145     -723.7954     
   5751000   305.27807      371.2937       18546.107      19354.189     -507.46082    
   5752000   318.13366      383.20097      18490.592      19328.975     -155.86794    
   5753000   309.40029      372.16387      18496.34       19311.19      -337.23333    
   5754000   300.1787       361.19732      18512.157      19302.847     -849.38367    
   5755000   279.71699      374.51205      18522.936      19297.664     -221.75375    
   5756000   296.18316      376.50662      18488.522      19288.805     -269.91546    
   5757000   309.17956      370.05813      18491.733      19304.162     -357.84078    
   5758000   294.44825      369.64471      18519.68       19310.618     -627.06376    
   5759000   299.25348      371.27752      18523.915      19323.361     -531.31371    
   5760000   307.49481      382.13826      18509.093      19331.191      37.407288    
   5761000   294.93411      373.96644      18542.717      19338.672     -403.70129    
   5762000   307.44347      367.27509      18534.162      19341.323     -699.45046    
   5763000   304.25657      380.83093      18525.43       19341.587     -39.644222    
   5764000   314.63656      380.5924       18500.393      19331.164     -199.23905    
   5765000   308.23168      372.22537      18499.354      19312.594     -338.55349    
   5766000   298.82164      369.76935      18506.109      19303.429     -444.91662    
   5767000   291.23266      380.18478      18495.64       19292.517     -166.60576    
   5768000   284.17355      381.01499      18499.718      19287.326     -217.79097    
   5769000   278.77215      374.4915       18514.161      19287.516     -327.44949    
   5770000   309.82834      368.46227      18492.816      19304.577     -514.04759    
   5771000   299.69812      380.90576      18507.842      19317.552      17.611365    
   5772000   309.85636      377.20364      18507.245      19327.788     -185.22855    
   5773000   309.83217      370.35682      18532.871      19346.532     -444.51373    
   5774000   309.64279      374.64797      18521.653      19339.334     -341.34297    
   5775000   320.39885      379.40794      18497.116      19334.947      42.622863    
   5776000   313.43161      372.37402      18507.016      19327.844     -389.61889    
   5777000   305.59418      372.31563      18509.854      19319.411     -424.7123     
   5778000   310.8556       379.14374      18492.819      19316.731     -195.22456    
   5779000   296.73075      374.17179      18510.131      19308.862     -282.08612    
   5780000   313.71256      367.36791      18500.835      19317.06      -612.87809    
Loop time of 12.9539 on 4 procs for 50000 steps with 481 atoms

Performance: 16.675 ns/day, 1.439 hours/ns, 3859.842 timesteps/s, 1.857 Matom-step/s
98.3% CPU use with 4 MPI tasks x no OpenMP threads

MPI task timing breakdown:
Section |  min time  |  avg time  |  max time  |%varavg| %total
---------------------------------------------------------------
Pair    | 1.8779     | 3.1645     | 4.1086     |  52.0 | 24.43
Bond    | 4.0543     | 4.505      | 5.0294     |  18.5 | 34.78
Neigh   | 0.078281   | 0.078495   | 0.078717   |   0.1 |  0.61
Comm    | 3.2408     | 4.5701     | 6.3123     |  53.8 | 35.28
Output  | 0.0018275  | 0.0027752  | 0.0031425  |   1.0 |  0.02
Modify  | 0.42305    | 0.43088    | 0.43608    |   0.8 |  3.33
Other   |            | 0.2021     |            |       |  1.56

Nlocal:         120.25 ave         130 max         111 min
Histogram: 1 1 0 0 0 0 0 1 0 1
Nghost:         4182.5 ave        4209 max        4154 min
Histogram: 1 0 1 0 0 0 0 0 1 1
Neighs:              0 ave           0 max           0 min
Histogram: 4 0 0 0 0 0 0 0 0 0

Total # of neighbors = 0
Ave neighs/atom = 0
Ave special neighs/atom = 15.567568
Neighbor list builds = 83
Dangerous builds = 0
unfix           myat1
next            cpt
jump            SELF loop
variable        zdes equal  -15+0.30*(${cpt}-1)
variable        zdes equal  -15+0.30*(97-1)
fix             mytth2 H2 spring tether ${k1} 5 5 ${zdes} 0
fix             mytth2 H2 spring tether 0.5 5 5 ${zdes} 0
fix             mytth2 H2 spring tether 0.5 5 5 13.8 0
run             10000
Generated 0 of 1 mixed pair_coeff terms from geometric mixing rule
Per MPI rank memory allocation (min/avg/max) = 14.61 | 14.61 | 14.61 Mbytes
   Step          Temp          E_pair         E_mol          TotEng         Press     
   5780000   313.71256      367.36791      18500.835      19317.06      -612.87809    
   5781000   292.40371      373.44106      18517.529      19309.338     -296.43353    
   5782000   277.44134      374.07071      18530.669      19301.7       -483.76464    
   5783000   282.89404      375.74773      18531.023      19311.532     -238.21973    
   5784000   301.96929      366.49829      18516.461      19315.014     -643.36653    
   5785000   307.85575      369.87319      18511.575      19321.924     -456.25484    
   5786000   306.00816      382.7608       18509.227      19329.821     -83.396182    
   5787000   300.84244      372.70939      18539.008      19342.16      -363.70008    
   5788000   312.04875      367.35853      18527.801      19341.636     -607.67601    
   5789000   315.47738      373.31833      18516.99       19341.69      -400.57419    
   5790000   306.68346      376.73478      18515.739      19331.273     -255.18469    
Loop time of 2.69368 on 4 procs for 10000 steps with 481 atoms

Performance: 16.038 ns/day, 1.496 hours/ns, 3712.394 timesteps/s, 1.786 Matom-step/s
97.3% CPU use with 4 MPI tasks x no OpenMP threads

MPI task timing breakdown:
Section |  min time  |  avg time  |  max time  |%varavg| %total
---------------------------------------------------------------
Pair    | 0.38574    | 0.64345    | 0.83358    |  22.9 | 23.89
Bond    | 0.82866    | 0.91598    | 1.0109     |   7.7 | 34.00
Neigh   | 0.013037   | 0.013071   | 0.013105   |   0.0 |  0.49
Comm    | 0.71736    | 0.97185    | 1.3145     |  22.8 | 36.08
Output  | 0.00035758 | 0.0003963  | 0.00049942 |   0.0 |  0.01
Modify  | 0.099519   | 0.10292    | 0.10453    |   0.6 |  3.82
Other   |            | 0.04601    |            |       |  1.71

Nlocal:         120.25 ave         129 max         112 min
Histogram: 2 0 0 0 0 0 0 0 0 2
Nghost:        4174.25 ave        4199 max        4149 min
Histogram: 1 1 0 0 0 0 0 0 0 2
Neighs:              0 ave           0 max           0 min
Histogram: 4 0 0 0 0 0 0 0 0 0

Total # of neighbors = 0
Ave neighs/atom = 0
Ave special neighs/atom = 15.567568
Neighbor list builds = 13
Dangerous builds = 0
fix             myat1 all ave/time 100 10 1000 v_zave v_zdes file simulation_data/abpot/${cpt}.dat
fix             myat1 all ave/time 100 10 1000 v_zave v_zdes file simulation_data/abpot/97.dat
run             50000
Generated 0 of 1 mixed pair_coeff terms from geometric mixing rule
Per MPI rank memory allocation (min/avg/max) = 14.61 | 14.61 | 14.61 Mbytes
   Step          Temp          E_pair         E_mol          TotEng         Press     
   5790000   306.68346      376.73478      18515.739      19331.273     -255.18469    
   5791000   311.92689      377.86496      18488.756      19312.922     -230.36936    
   5792000   287.29721      361.19114      18525.335      19297.588     -869.79277    
   5793000   286.2822       379.61491      18504.465      19293.69      -59.216606    
   5794000   282.88553      378.6107       18506.575      19289.935     -292.11774    
   5795000   291.49078      370.97822      18505.908      19293.948     -566.32471    
   5796000   293.46711      371.26607      18516.383      19307.538     -417.56434    
   5797000   294.57303      372.75826      18517.987      19312.217     -394.33209    
   5798000   306.37497      376.95393      18501.215      19316.527     -106.1574     
   5799000   299.92453      372.0322       18527.284      19328.445     -451.63658    
   5800000   303.4145       369.07152      18518.312      19321.506     -431.34906    
   5801000   284.10146      379.05188      18531.153      19316.694     -242.64135    
   5802000   296.28383      374.59524      18515.46       19313.975     -159.78555    
   5803000   302.8959       367.55629      18515.831      19316.768     -458.73265    
   5804000   286.02854      375.69919      18524.522      19309.468     -237.33035    
   5805000   299.65149      378.22263      18493.93       19300.891     -120.36446    
   5806000   303.0689       371.23688      18492.269      19297.134     -343.60515    
   5807000   298.82608      371.09832      18497.066      19295.721     -448.72265    
   5808000   288.33738      374.24435      18502.436      19289.231     -273.35818    
   5809000   297.23316      378.859        18488.295      19292.432     -186.73851    
   5810000   303.82719      369.73273      18499.798      19304.243     -384.1086     
   5811000   299.79275      367.615        18524.074      19320.629     -473.0439     
   5812000   307.22152      380.54454      18516.31       19336.424     -178.80117    
   5813000   304.60128      380.19049      18521.83       19337.841     -273.74376    
   5814000   300.90497      369.67649      18541.506      19341.714     -511.1656     
   5815000   306.22608      369.75637      18527.253      19335.154     -448.69973    
   5816000   301.2065       379.6139       18506.729      19317.306     -207.13798    
   5817000   298.87498      375.90232      18501.678      19305.207     -152.4715     
   5818000   297.89145      369.78846      18498.757      19294.766     -462.46435    
   5819000   292.20524      369.10818      18496.291      19283.483     -431.31709    
   5820000   290.32047      377.0682       18493.889      19286.345     -87.631499    
   5821000   287.74539      381.33223      18501.414      19294.449     -58.453817    
   5822000   304.25163      364.22525      18507.877      19307.422     -652.50698    
   5823000   304.0901       371.79917      18507.352      19314.24      -505.87558    
   5824000   308.09323      384.05535      18500.049      19324.92       247.71364    
   5825000   316.48553      374.51489      18505.121      19332.46      -336.5066     
   5826000   298.56393      371.02687      18540.242      19338.451     -456.64301    
   5827000   317.64699      373.65819      18516.226      19344.37      -353.95377    
   5828000   303.02932      382.06701      18514.829      19330.467     -147.95936    
   5829000   301.98017      369.87902      18513.006      19314.955     -513.1845     
   5830000   308.13716      369.55535      18484.511      19294.945     -384.29574    
   5831000   294.82361      373.9593       18484.681      19280.471     -418.13385    
   5832000   291.01677      373.61269      18490.074      19280.07      -328.50517    
   5833000   298.06856      369.25075      18495.949      19291.673     -478.95289    
   5834000   299.69467      367.53579      18508.83       19305.166     -498.68331    
   5835000   296.95393      379.11317      18512.3        19316.292     -237.72575    
   5836000   311.23939      371.89129      18514.331      19331.54      -269.08816    
   5837000   297.31647      369.73976      18533.378      19328.514     -516.5939     
   5838000   310.56755      371.44803      18508.807      19324.612     -508.41617    
   5839000   303.29445      382.28835      18507.569      19323.807     -129.37175    
   5840000   310.81197      373.97043      18503.913      19322.589     -310.31512    
Loop time of 12.6896 on 4 procs for 50000 steps with 481 atoms

Performance: 17.022 ns/day, 1.410 hours/ns, 3940.246 timesteps/s, 1.895 Matom-step/s
98.2% CPU use with 4 MPI tasks x no OpenMP threads

MPI task timing breakdown:
Section |  min time  |  avg time  |  max time  |%varavg| %total
---------------------------------------------------------------
Pair    | 1.8583     | 3.1478     | 4.0818     |  51.9 | 24.81
Bond    | 4.0181     | 4.4783     | 5.0008     |  18.4 | 35.29
Neigh   | 0.055611   | 0.05564    | 0.05567    |   0.0 |  0.44
Comm    | 3.0675     | 4.4011     | 6.1489     |  55.0 | 34.68
Output  | 0.0019078  | 0.0028273  | 0.0031798  |   1.0 |  0.02
Modify  | 0.40454    | 0.40825    | 0.4138     |   0.5 |  3.22
Other   |            | 0.1956     |            |       |  1.54

Nlocal:         120.25 ave         128 max         112 min
Histogram: 2 0 0 0 0 0 0 0 0 2
Nghost:        4163.75 ave        4187 max        4140 min
Histogram: 2 0 0 0 0 0 0 0 0 2
Neighs:              0 ave           0 max           0 min
Histogram: 4 0 0 0 0 0 0 0 0 0

Total # of neighbors = 0
Ave neighs/atom = 0
Ave special neighs/atom = 15.567568
Neighbor list builds = 58
Dangerous builds = 0
unfix           myat1
next            cpt
jump            SELF loop
variable        zdes equal  -15+0.30*(${cpt}-1)
variable        zdes equal  -15+0.30*(98-1)
fix             mytth2 H2 spring tether ${k1} 5 5 ${zdes} 0
fix             mytth2 H2 spring tether 0.5 5 5 ${zdes} 0
fix             mytth2 H2 spring tether 0.5 5 5 14.1 0
run             10000
Generated 0 of 1 mixed pair_coeff terms from geometric mixing rule
Per MPI rank memory allocation (min/avg/max) = 14.61 | 14.61 | 14.61 Mbytes
   Step          Temp          E_pair         E_mol          TotEng         Press     
   5840000   310.81197      373.97043      18503.913      19322.589     -310.31512    
   5841000   284.62804      366.86934      18537.445      19311.557     -724.27401    
   5842000   291.15613      374.97482      18517.094      19308.652     -317.11135    
   5843000   289.04197      380.42205      18505.246      19299.226     -249.62295    
   5844000   294.97298      374.19222      18491.93       19288.167     -306.14683    
   5845000   284.47609      364.12438      18502.11       19273.26      -763.78642    
   5846000   280.72292      375.13487      18478.438      19255.228     -308.49819    
   5847000   279.96876      377.29647      18469.585      19247.458     -317.05873    
   5848000   280.1205       370.11006      18495.375      19266.278     -530.70698    
   5849000   292.26253      368.9868       18504.703      19291.856     -451.82742    
   5850000   287.06813      372.00833      18513.894      19296.637     -311.39951    
Loop time of 2.48209 on 4 procs for 10000 steps with 481 atoms

Performance: 17.405 ns/day, 1.379 hours/ns, 4028.855 timesteps/s, 1.938 Matom-step/s
98.9% CPU use with 4 MPI tasks x no OpenMP threads

MPI task timing breakdown:
Section |  min time  |  avg time  |  max time  |%varavg| %total
---------------------------------------------------------------
Pair    | 0.36788    | 0.62316    | 0.80473    |  22.9 | 25.11
Bond    | 0.79719    | 0.89086    | 0.99714    |   8.6 | 35.89
Neigh   | 0.0092131  | 0.0092285  | 0.0092441  |   0.0 |  0.37
Comm    | 0.58329    | 0.84834    | 1.1979     |  24.8 | 34.18
Output  | 0.00029125 | 0.0003209  | 0.00039921 |   0.0 |  0.01
Modify  | 0.072065   | 0.072773   | 0.073487   |   0.2 |  2.93
Other   |            | 0.03741    |            |       |  1.51

Nlocal:         120.25 ave         125 max         116 min
Histogram: 2 0 0 0 0 0 0 0 1 1
Nghost:        4171.25 ave        4197 max        4145 min
Histogram: 1 0 1 0 0 0 0 1 0 1
Neighs:              0 ave           0 max           0 min
Histogram: 4 0 0 0 0 0 0 0 0 0

Total # of neighbors = 0
Ave neighs/atom = 0
Ave special neighs/atom = 15.567568
Neighbor list builds = 10
Dangerous builds = 0
fix             myat1 all ave/time 100 10 1000 v_zave v_zdes file simulation_data/abpot/${cpt}.dat
fix             myat1 all ave/time 100 10 1000 v_zave v_zdes file simulation_data/abpot/98.dat
run             50000
Generated 0 of 1 mixed pair_coeff terms from geometric mixing rule
Per MPI rank memory allocation (min/avg/max) = 14.61 | 14.61 | 14.61 Mbytes
   Step          Temp          E_pair         E_mol          TotEng         Press     
   5850000   287.06813      372.00833      18513.894      19296.637     -311.39951    
   5851000   305.37607      377.87518      18490.91       19305.714     -116.88763    
   5852000   314.59796      372.61526      18490.734      19313.473     -398.63636    
   5853000   300.51478      367.36158      18522.65       19319.984     -572.12884    
   5854000   301.584        378.17052      18515.828      19325.502     -92.001393    
   5855000   308.12669      374.34903      18513.971      19329.184     -424.54888    
   5856000   311.75897      371.66907      18517.993      19335.723     -450.53399    
   5857000   305.51577      370.51449      18529.021      19336.664     -422.11601    
   5858000   305.69756      377.86075      18518.326      19333.576     -323.07967    
   5859000   294.80439      376.2259       18525.705      19323.734     -251.18777    
   5860000   302.18319      370.95388      18502.582      19305.897     -441.05128    
   5861000   290.64743      370.12929      18506.865      19292.849     -490.3916     
   5862000   288.68365      376.62948      18497.197      19286.872     -121.48305    
   5863000   291.76337      373.86706      18493.272      19284.591     -265.77685    
   5864000   297.3589       371.00113      18505.666      19302.125     -380.84443    
   5865000   311.69458      373.73034      18497.499      19317.199     -360.67534    
   5866000   318.48968      374.93024      18505.729      19336.351     -224.3548     
   5867000   305.71118      374.40352      18528.84       19340.652     -365.27521    
   5868000   332.72274      371.83792      18495.25       19343.144     -307.7573     
   5869000   294.83515      372.28405      18534.481      19328.611     -502.39535    
   5870000   303.38436      382.04424      18510.156      19326.279     -192.24121    
   5871000   303.63585      371.06847      18515.345      19320.853     -423.90627    
   5872000   293.2093       374.64444      18517.764      19311.929     -362.10905    
   5873000   290.38199      372.45039      18518.446      19306.372     -427.04101    
   5874000   290.48993      378.07592      18507.676      19301.381     -294.56338    
   5875000   293.88299      370.83141      18512.805      19304.121     -431.10373    
   5876000   321.22187      372.35572      18487.498      19319.454     -440.49204    
   5877000   303.06562      375.86031      18535.439      19344.922     -305.69367    
   5878000   310.18275      378.19482      18535.822      19357.823     -248.70506    
   5879000   306.40228      371.62043      18551.398      19361.415     -445.88296    
   5880000   311.23583      368.42348      18531.524      19345.26      -306.65619    
   5881000   305.72771      374.3443       18512.242      19324.018     -345.42671    
   5882000   313.2157       378.28697      18491.718      19318.151     -23.786827    
   5883000   290.4347       369.99784      18522.171      19307.719     -349.06134    
   5884000   302.54604      367.59954      18506.38       19306.859     -461.29993    
   5885000   298.90303      377.31185      18503.299      19308.278     -230.75017    
   5886000   301.56568      378.60478      18487.139      19297.221     -131.65128    
   5887000   304.4974       367.16835      18507.228      19310.068     -575.54012    
   5888000   301.30491      371.2198       18522.444      19324.767     -314.11607    
   5889000   315.37485      373.73594      18516.771      19341.742     -341.4179     
   5890000   329.81701      379.55176      18506.76       19358.21      -193.85683    
   5891000   319.47359      372.03139      18536.064      19365.195     -508.9796     
   5892000   322.96431      368.24831      18528.743      19359.085     -461.15746    
   5893000   314.14534      378.64254      18503.447      19331.565     -235.22539    
   5894000   301.92127      375.05367      18517.711      19324.75      -183.95233    
   5895000   308.88436      370.85009      18509.77       19322.569     -483.38644    
   5896000   291.89302      369.55721      18525.311      19312.505     -447.83006    
   5897000   282.40282      376.92432      18528.843      19309.827     -241.67943    
   5898000   309.68126      378.04448      18490.494      19311.627     -310.1662     
   5899000   282.92495      368.72849      18529.577      19303.111     -562.08764    
   5900000   288.5842       374.87992      18511.871      19299.654     -350.65384    
Loop time of 12.9429 on 4 procs for 50000 steps with 481 atoms

Performance: 16.689 ns/day, 1.438 hours/ns, 3863.122 timesteps/s, 1.858 Matom-step/s
97.8% CPU use with 4 MPI tasks x no OpenMP threads

MPI task timing breakdown:
Section |  min time  |  avg time  |  max time  |%varavg| %total
---------------------------------------------------------------
Pair    | 1.8771     | 3.1718     | 4.1169     |  52.1 | 24.51
Bond    | 4.0485     | 4.5088     | 5.0368     |  18.5 | 34.84
Neigh   | 0.078172   | 0.078267   | 0.078363   |   0.0 |  0.60
Comm    | 3.1915     | 4.5289     | 6.2819     |  54.4 | 34.99
Output  | 0.0018078  | 0.0027828  | 0.0031612  |   1.1 |  0.02
Modify  | 0.43812    | 0.4435     | 0.44969    |   0.7 |  3.43
Other   |            | 0.2089     |            |       |  1.61

Nlocal:         120.25 ave         130 max         111 min
Histogram: 1 0 1 0 0 0 0 1 0 1
Nghost:           4166 ave        4188 max        4140 min
Histogram: 1 0 1 0 0 0 0 0 0 2
Neighs:              0 ave           0 max           0 min
Histogram: 4 0 0 0 0 0 0 0 0 0

Total # of neighbors = 0
Ave neighs/atom = 0
Ave special neighs/atom = 15.567568
Neighbor list builds = 82
Dangerous builds = 0
unfix           myat1
next            cpt
jump            SELF loop
variable        zdes equal  -15+0.30*(${cpt}-1)
variable        zdes equal  -15+0.30*(99-1)
fix             mytth2 H2 spring tether ${k1} 5 5 ${zdes} 0
fix             mytth2 H2 spring tether 0.5 5 5 ${zdes} 0
fix             mytth2 H2 spring tether 0.5 5 5 14.4 0
run             10000
Generated 0 of 1 mixed pair_coeff terms from geometric mixing rule
Per MPI rank memory allocation (min/avg/max) = 14.61 | 14.61 | 14.61 Mbytes
   Step          Temp          E_pair         E_mol          TotEng         Press     
   5900000   288.5842       374.87992      18511.871      19299.654     -350.65384    
   5901000   298.20519      379.50917      18497.436      19303.614     -127.10513    
   5902000   296.57271      373.00265      18506.492      19303.827     -498.40807    
   5903000   299.07992      370.09384      18512.874      19310.888     -357.36338    
   5904000   303.46809      378.33256      18505.597      19318.128     -266.53609    
   5905000   309.2694       373.83655      18506.975      19323.311     -258.00725    
   5906000   316.92108      371.52024      18509.837      19334.805     -485.82893    
   5907000   304.66672      371.67561      18533.172      19340.762     -372.66567    
   5908000   317.95088      375.29785      18506.611      19336.83      -181.47223    
   5909000   285.05237      377.99597      18534.526      19320.372     -351.11582    
   5910000   292.88335      371.7338       18510.664      19301.452     -398.30927    
Loop time of 2.77996 on 4 procs for 10000 steps with 481 atoms

Performance: 15.540 ns/day, 1.544 hours/ns, 3597.180 timesteps/s, 1.730 Matom-step/s
96.0% CPU use with 4 MPI tasks x no OpenMP threads

MPI task timing breakdown:
Section |  min time  |  avg time  |  max time  |%varavg| %total
---------------------------------------------------------------
Pair    | 0.39108    | 0.64707    | 0.83274    |  23.3 | 23.28
Bond    | 0.84349    | 0.92255    | 1.0273     |   8.1 | 33.19
Neigh   | 0.017773   | 0.017777   | 0.017779   |   0.0 |  0.64
Comm    | 0.7518     | 1.0202     | 1.3649     |  22.6 | 36.70
Output  | 0.00035196 | 0.0023075  | 0.0043225  |   4.1 |  0.08
Modify  | 0.11481    | 0.12362    | 0.13252    |   2.5 |  4.45
Other   |            | 0.04648    |            |       |  1.67

Nlocal:         120.25 ave         125 max         116 min
Histogram: 2 0 0 0 0 0 0 0 1 1
Nghost:        4168.25 ave        4191 max        4145 min
Histogram: 1 1 0 0 0 0 0 0 1 1
Neighs:              0 ave           0 max           0 min
Histogram: 4 0 0 0 0 0 0 0 0 0

Total # of neighbors = 0
Ave neighs/atom = 0
Ave special neighs/atom = 15.567568
Neighbor list builds = 17
Dangerous builds = 0
fix             myat1 all ave/time 100 10 1000 v_zave v_zdes file simulation_data/abpot/${cpt}.dat
fix             myat1 all ave/time 100 10 1000 v_zave v_zdes file simulation_data/abpot/99.dat
run             50000
Generated 0 of 1 mixed pair_coeff terms from geometric mixing rule
Per MPI rank memory allocation (min/avg/max) = 14.61 | 14.61 | 14.61 Mbytes
   Step          Temp          E_pair         E_mol          TotEng         Press     
   5910000   292.88335      371.7338       18510.664      19301.452     -398.30927    
   5911000   291.18116      368.96815      18499.128      19284.715     -502.13146    
   5912000   272.67474      378.40196      18514.995      19283.537     -141.01435    
   5913000   282.92255      372.70704      18507.017      19284.526     -462.05059    
   5914000   285.4351       371.92941      18516.629      19296.956     -408.59906    
   5915000   290.73259      374.18881      18510.027      19300.193     -455.97347    
   5916000   309.82255      380.55799      18494.214      19318.063     -111.44144    
   5917000   309.83383      375.93073      18501.497      19320.734     -293.37108    
   5918000   306.86012      372.94804      18507.649      19319.649     -398.23274    
   5919000   305.71657      373.49166      18510.219      19321.126     -450.47509    
   5920000   306.47332      379.55896      18496.627      19314.684     -165.65232    
   5921000   311.9508       372.952        18499.1        19318.388     -506.1066     
   5922000   288.94115      374.52352      18526.16       19314.097     -294.93727    
   5923000   294.18207      372.09134      18515.985      19308.989     -382.60804    
   5924000   306.66296      375.34644      18482.758      19296.875     -242.56034    
   5925000   288.82514      378.70591      18495.062      19287.015     -235.42297    
   5926000   286.79735      372.98689      18493.018      19276.351     -273.01536    
   5927000   267.05262      372.92348      18507.966      19262.985     -381.06996    
   5928000   273.26438      375.75954      18492.56       19259.303     -229.75774    
   5929000   281.24777      374.15409      18491.428      19267.988     -288.51419    
   5930000   300.1329       370.44557      18498.495      19298.367     -519.39195    
   5931000   304.48344      371.09021      18509.058      19315.8       -410.95023    
   5932000   308.67003      372.46637      18504.221      19318.329     -276.44394    
   5933000   311.55575      378.21435      18496.431      19320.416     -186.51243    
   5934000   298.59759      368.43734      18528.312      19323.98      -545.51053    
   5935000   284.14123      377.29904      18541.48       19325.325     -353.06272    
   5936000   309.20708      377.75652      18497.252      19317.419     -212.1023     
   5937000   298.04656      373.34953      18511.444      19311.235     -376.18532    
   5938000   288.89085      373.75716      18508.89       19295.989     -327.43744    
   5939000   297.80893      370.58585      18486.435      19283.122     -449.26217    
   5940000   283.89033      373.90135      18497.663      19277.751     -417.04614    
   5941000   289.91982      377.75491      18487.201      19279.77      -194.5479     
   5942000   286.89204      369.5622       18507.619      19287.663     -511.374      
   5943000   301.04314      372.21143      18514.76       19317.7       -376.33823    
   5944000   306.22139      379.98906      18514.001      19332.128     -71.025289    
   5945000   309.61446      370.37666      18526.781      19340.151     -425.43627    
   5946000   311.11775      373.18708      18519.218      19337.549     -339.2963     
   5947000   310.15704      376.66344      18504.838      19325.271     -244.00091    
   5948000   289.93056      374.22111      18525.964      19315.015     -282.94001    
   5949000   311.31906      375.0368       18486.009      19306.477     -181.59916    
   5950000   288.40072      365.84489      18519.027      19297.512     -708.60576    
   5951000   292.34661      377.27941      18490.628      19286.193     -253.36951    
   5952000   287.71069      377.09336      18494.441      19283.188     -299.62725    
   5953000   295.12418      367.21156      18518.098      19307.57      -569.84266    
   5954000   318.33662      369.82653      18518.524      19343.823     -612.618      
   5955000   319.5401       374.74832      18512.749      19344.692     -297.88635    
   5956000   326.98598      375.43725      18507.334      19350.619     -243.42734    
   5957000   309.60105      370.45132      18530.119      19343.544     -451.43728    
   5958000   305.25449      367.87134      18524.993      19329.619     -569.55995    
   5959000   315.86644      383.86593      18484.435      19320.239      57.66797     
   5960000   301.33837      370.35358      18499.67       19301.175     -373.39259    
Loop time of 12.4178 on 4 procs for 50000 steps with 481 atoms

Performance: 17.394 ns/day, 1.380 hours/ns, 4026.483 timesteps/s, 1.937 Matom-step/s
98.9% CPU use with 4 MPI tasks x no OpenMP threads

MPI task timing breakdown:
Section |  min time  |  avg time  |  max time  |%varavg| %total
---------------------------------------------------------------
Pair    | 1.8507     | 3.1092     | 4.036      |  51.1 | 25.04
Bond    | 4.0138     | 4.4485     | 4.9417     |  17.7 | 35.82
Neigh   | 0.08305    | 0.083078   | 0.083097   |   0.0 |  0.67
Comm    | 2.9448     | 4.2117     | 5.9084     |  54.3 | 33.92
Output  | 0.0017469  | 0.0026876  | 0.0030559  |   1.0 |  0.02
Modify  | 0.3697     | 0.37474    | 0.37871    |   0.5 |  3.02
Other   |            | 0.1879     |            |       |  1.51

Nlocal:         120.25 ave         129 max         112 min
Histogram: 2 0 0 0 0 0 0 0 1 1
Nghost:        4186.25 ave        4214 max        4157 min
Histogram: 1 0 1 0 0 0 0 0 1 1
Neighs:              0 ave           0 max           0 min
Histogram: 4 0 0 0 0 0 0 0 0 0

Total # of neighbors = 0
Ave neighs/atom = 0
Ave special neighs/atom = 15.567568
Neighbor list builds = 87
Dangerous builds = 0
unfix           myat1
next            cpt
jump            SELF loop
variable        zdes equal  -15+0.30*(${cpt}-1)
variable        zdes equal  -15+0.30*(100-1)
fix             mytth2 H2 spring tether ${k1} 5 5 ${zdes} 0
fix             mytth2 H2 spring tether 0.5 5 5 ${zdes} 0
fix             mytth2 H2 spring tether 0.5 5 5 14.7 0
run             10000
Generated 0 of 1 mixed pair_coeff terms from geometric mixing rule
Per MPI rank memory allocation (min/avg/max) = 14.61 | 14.61 | 14.61 Mbytes
   Step          Temp          E_pair         E_mol          TotEng         Press     
   5960000   301.33837      370.35358      18499.67       19301.175     -373.39259    
   5961000   288.46593      370.76304      18511.117      19294.614     -472.26378    
   5962000   293.22238      373.37255      18508.006      19300.917     -221.49469    
   5963000   295.87072      375.91623      18501.333      19300.578     -204.44857    
   5964000   293.50137      375.16274      18515.389      19310.49      -324.78306    
   5965000   289.01622      370.67613      18545.209      19329.406     -493.32295    
   5966000   304.97925      374.30034      18542.216      19352.878     -480.08919    
   5967000   310.65503      380.15077      18539.215      19363.848      12.886111    
   5968000   331.07527      374.04972      18513.871      19361.62      -431.4364     
   5969000   310.58169      368.64974      18538.55       19351.577     -515.16964    
   5970000   307.19748      377.47597      18513.269      19330.28      -333.04512    
Loop time of 2.50539 on 4 procs for 10000 steps with 481 atoms

Performance: 17.243 ns/day, 1.392 hours/ns, 3991.401 timesteps/s, 1.920 Matom-step/s
98.5% CPU use with 4 MPI tasks x no OpenMP threads

MPI task timing breakdown:
Section |  min time  |  avg time  |  max time  |%varavg| %total
---------------------------------------------------------------
Pair    | 0.36865    | 0.62604    | 0.81123    |  23.1 | 24.99
Bond    | 0.79845    | 0.89219    | 0.99498    |   8.5 | 35.61
Neigh   | 0.012163   | 0.012168   | 0.012171   |   0.0 |  0.49
Comm    | 0.59937    | 0.86103    | 1.2133     |  24.7 | 34.37
Output  | 0.00032417 | 0.00035701 | 0.00043338 |   0.0 |  0.01
Modify  | 0.074628   | 0.07587    | 0.077436   |   0.4 |  3.03
Other   |            | 0.03774    |            |       |  1.51

Nlocal:         120.25 ave         125 max         116 min
Histogram: 2 0 0 0 0 0 0 0 1 1
Nghost:         4161.5 ave        4191 max        4133 min
Histogram: 1 0 0 1 0 0 1 0 0 1
Neighs:              0 ave           0 max           0 min
Histogram: 4 0 0 0 0 0 0 0 0 0

Total # of neighbors = 0
Ave neighs/atom = 0
Ave special neighs/atom = 15.567568
Neighbor list builds = 13
Dangerous builds = 0
fix             myat1 all ave/time 100 10 1000 v_zave v_zdes file simulation_data/abpot/${cpt}.dat
fix             myat1 all ave/time 100 10 1000 v_zave v_zdes file simulation_data/abpot/100.dat
run             50000
Generated 0 of 1 mixed pair_coeff terms from geometric mixing rule
Per MPI rank memory allocation (min/avg/max) = 14.61 | 14.61 | 14.61 Mbytes
   Step          Temp          E_pair         E_mol          TotEng         Press     
   5970000   307.19748      377.47597      18513.269      19330.28      -333.04512    
   5971000   308.37268      381.15002      18497.528      19319.894      9.4904539    
   5972000   281.85678      368.14653      18542.709      19314.133     -609.22199    
   5973000   313.0758       377.13993      18483.146      19308.231     -312.13446    
   5974000   287.30545      375.66594      18510.731      19297.47      -204.09651    
   5975000   301.04536      374.39252      18497.147      19302.272     -274.96478    
   5976000   292.96176      375.57692      18513.895      19308.638     -259.75002    
   5977000   303.52173      365.30248      18508.573      19308.151     -524.2526     
   5978000   310.70184      376.13726      18510.808      19331.494     -184.00577    
   5979000   311.85015      380.32273      18521.612      19348.126     -91.213826    
   5980000   307.16261      361.86963      18552.906      19354.261     -849.92747    
   5981000   324.48702      373.90243      18514.255      19352.43      -366.94229    
   5982000   313.0998       380.06163      18510.675      19338.716     -86.154292    
   5983000   288.46395      372.96017      18529.878      19315.569     -395.33294    
   5984000   294.40402      370.45948      18509.306      19300.995     -613.19974    
   5985000   296.24862      370.22939      18509.126      19303.225     -416.80143    
   5986000   291.99582      381.50875      18504.476      19303.769     -109.13751    
   5987000   303.08831      373.04653      18495.764      19302.466     -275.17499    
   5988000   302.95822      371.2433       18506.317      19311.03      -570.36056    
   5989000   303.45847      371.64052      18511.712      19317.538     -229.07521    
   5990000   300.89016      383.55908      18504.289      19318.358     -93.755449    
   5991000   323.26636      373.93579      18507.826      19344.287     -296.62767    
   5992000   304.31907      368.75008      18558.309      19362.476     -652.37497    
   5993000   303.8038       377.19928      18550.272      19362.15      -189.10143    
   5994000   319.06257      376.17397      18517.599      19350.284     -204.13778    
   5995000   292.43679      373.48561      18531.006      19322.907     -311.08075    
   5996000   291.77863      368.23714      18522.204      19307.914     -682.98552    
   5997000   293.26709      380.83862      18501.331      19301.773     -65.135006    
   5998000   278.60364      374.78119      18525.452      19298.856     -284.73353    
   5999000   294.51209      371.41539      18512.439      19305.239     -362.46946    
   6000000   301.94178      372.51018      18506.409      19310.934     -507.79468    
   6001000   290.37911      376.06565      18520.698      19312.235     -284.24441    
   6002000   305.02206      377.40851      18510.137      19323.968     -205.85787    
   6003000   302.37293      369.21865      18532.695      19334.546     -529.89318    
   6004000   320.69098      368.9244       18514.16       19341.925     -473.05813    
   6005000   313.05633      384.14924      18525.126      19357.193     -4.5057352    
   6006000   316.05198      368.03342      18534.476      19354.713     -583.18992    
   6007000   313.07298      369.84161      18517.489      19335.272     -415.27279    
   6008000   302.35535      376.05092      18506.433      19315.091     -290.79616    
   6009000   297.0609       373.20675      18503.575      19301.813     -319.58011    
   6010000   285.81766      375.30609      18513.364      19297.615     -305.55978    
   6011000   288.88725      367.65456      18515.219      19296.21      -471.04721    
   6012000   304.47408      375.29585      18496.879      19307.813     -349.26347    
   6013000   289.03134      377.15746      18522.656      19313.356     -204.20251    
   6014000   304.32278      373.17706      18515.341      19323.94      -438.1357     
   6015000   308.28176      373.60883      18532.781      19347.476     -379.97623    
   6016000   313.21806      373.50817      18541.337      19362.994     -392.16821    
   6017000   319.76577      379.04368      18518.712      19355.273     -109.33394    
   6018000   318.7582       375.75981      18515.813      19347.649     -321.37801    
   6019000   284.88433      371.03237      18531.337      19309.979     -515.11498    
   6020000   294.40907      378.4392       18488.661      19288.337     -157.5874     
Loop time of 12.6527 on 4 procs for 50000 steps with 481 atoms

Performance: 17.071 ns/day, 1.406 hours/ns, 3951.719 timesteps/s, 1.901 Matom-step/s
98.5% CPU use with 4 MPI tasks x no OpenMP threads

MPI task timing breakdown:
Section |  min time  |  avg time  |  max time  |%varavg| %total
---------------------------------------------------------------
Pair    | 1.8652     | 3.1355     | 4.0614     |  51.3 | 24.78
Bond    | 4.0405     | 4.4807     | 4.9787     |  17.6 | 35.41
Neigh   | 0.076958   | 0.077028   | 0.077103   |   0.0 |  0.61
Comm    | 3.0603     | 4.3524     | 6.06       |  54.0 | 34.40
Output  | 0.001857   | 0.0028239  | 0.0031733  |   1.1 |  0.02
Modify  | 0.40621    | 0.41133    | 0.41799    |   0.7 |  3.25
Other   |            | 0.1929     |            |       |  1.52

Nlocal:         120.25 ave         130 max         111 min
Histogram: 2 0 0 0 0 0 0 0 1 1
Nghost:        4189.25 ave        4215 max        4162 min
Histogram: 1 1 0 0 0 0 0 0 0 2
Neighs:              0 ave           0 max           0 min
Histogram: 4 0 0 0 0 0 0 0 0 0

Total # of neighbors = 0
Ave neighs/atom = 0
Ave special neighs/atom = 15.567568
Neighbor list builds = 82
Dangerous builds = 0
unfix           myat1
next            cpt
jump            SELF loop
variable        zdes equal  -15+0.30*(${cpt}-1)
variable        zdes equal  -15+0.30*(101-1)
fix             mytth2 H2 spring tether ${k1} 5 5 ${zdes} 0
fix             mytth2 H2 spring tether 0.5 5 5 ${zdes} 0
fix             mytth2 H2 spring tether 0.5 5 5 15 0
run             10000
Generated 0 of 1 mixed pair_coeff terms from geometric mixing rule
Per MPI rank memory allocation (min/avg/max) = 14.61 | 14.61 | 14.61 Mbytes
   Step          Temp          E_pair         E_mol          TotEng         Press     
   6020000   294.40907      378.4392       18488.661      19288.337     -157.5874     
   6021000   282.42357      372.05762      18512.553      19288.699     -368.41174    
   6022000   292.47411      375.28729      18505.743      19299.499     -280.69125    
   6023000   296.42133      372.26895      18501.932      19298.317     -361.03887    
   6024000   300.12728      372.49413      18509.942      19311.855     -390.29297    
   6025000   305.89838      381.0305       18506.129      19324.835     -208.60402    
   6026000   317.02087      373.95699      18503.08       19330.626     -302.76483    
   6027000   306.56676      373.79373      18524.954      19337.38      -233.29647    
   6028000   306.89394      376.9467       18517.542      19333.589     -201.83547    
   6029000   303.56483      374.84966      18515.493      19324.68      -351.04023    
   6030000   285.90703      373.5303       18515.274      19297.876     -399.35838    
Loop time of 2.46682 on 4 procs for 10000 steps with 481 atoms

Performance: 17.512 ns/day, 1.370 hours/ns, 4053.808 timesteps/s, 1.950 Matom-step/s
99.1% CPU use with 4 MPI tasks x no OpenMP threads

MPI task timing breakdown:
Section |  min time  |  avg time  |  max time  |%varavg| %total
---------------------------------------------------------------
Pair    | 0.36257    | 0.61846    | 0.8027     |  23.1 | 25.07
Bond    | 0.79418    | 0.88707    | 0.99187    |   8.3 | 35.96
Neigh   | 0.021127   | 0.021137   | 0.02115    |   0.0 |  0.86
Comm    | 0.56645    | 0.82219    | 1.1777     |  25.4 | 33.33
Output  | 0.00025696 | 0.00028497 | 0.00036104 |   0.0 |  0.01
Modify  | 0.074612   | 0.081708   | 0.088682   |   2.3 |  3.31
Other   |            | 0.03596    |            |       |  1.46

Nlocal:         120.25 ave         126 max         115 min
Histogram: 2 0 0 0 0 0 0 0 0 2
Nghost:        4154.75 ave        4182 max        4130 min
Histogram: 1 1 0 0 0 0 0 1 0 1
Neighs:              0 ave           0 max           0 min
Histogram: 4 0 0 0 0 0 0 0 0 0

Total # of neighbors = 0
Ave neighs/atom = 0
Ave special neighs/atom = 15.567568
Neighbor list builds = 23
Dangerous builds = 0
fix             myat1 all ave/time 100 10 1000 v_zave v_zdes file simulation_data/abpot/${cpt}.dat
fix             myat1 all ave/time 100 10 1000 v_zave v_zdes file simulation_data/abpot/101.dat
run             50000
Generated 0 of 1 mixed pair_coeff terms from geometric mixing rule
Per MPI rank memory allocation (min/avg/max) = 14.61 | 14.61 | 14.61 Mbytes
   Step          Temp          E_pair         E_mol          TotEng         Press     
   6030000   285.90703      373.5303       18515.274      19297.876     -399.35838    
   6031000   294.10652      374.27526      18492.583      19287.662     -235.47766    
   6032000   283.22919      371.9629       18503.05       19280.254     -451.21651    
   6033000   292.07659      371.26682      18488.034      19277.201     -359.36558    
   6034000   314.31134      376.53756      18467.526      19293.777     -149.76849    
   6035000   299.92256      371.00861      18507.201      19307.336     -590.49087    
   6036000   298.86512      370.54494      18515.728      19313.885     -290.01682    
   6037000   294.31991      372.68019      18524.907      19318.697     -300.37505    
   6038000   291.77081      369.13802      18536.471      19323.072     -388.41297    
   6039000   310.04672      372.93811      18508.171      19324.721     -353.85507    
   6040000   293.49957      370.50793      18528.135      19318.579     -426.37419    
   6041000   293.25104      372.45904      18529.957      19321.996     -579.14017    
   6042000   295.16024      373.71463      18518.455      19314.482     -348.68563    
   6043000   279.32156      373.8569       18535.401      19308.908     -270.49751    
   6044000   291.21126      367.14139      18516.342      19300.146     -451.7781     
   6045000   286.78309      375.72742      18487.105      19273.159     -270.21162    
   6046000   282.63144      376.41173      18480.401      19261.199     -135.97426    
   6047000   280.16288      368.91004      18499.046      19268.81      -489.34407    
   6048000   289.34181      372.98694      18497.226      19284.2       -266.87113    
   6049000   294.18501      373.62491      18502.088      19296.629     -456.02874    
   6050000   286.51301      373.00132      18528.128      19311.069     -296.13254    
   6051000   293.51865      370.32113      18531.441      19321.726     -573.17402    
   6052000   294.95081      370.98303      18523.643      19316.639     -503.23214    
   6053000   305.37168      375.91251      18507.209      19320.044     -172.94624    
   6054000   305.27554      372.85887      18515.453      19325.096     -366.14742    
   6055000   307.66832      370.99241      18513.066      19324.267     -481.05931    
   6056000   310.14539      370.53481      18495.407      19309.695     -391.21512    
   6057000   294.39647      375.12318      18495.872      19292.214     -233.25186    
   6058000   286.56466      373.38432      18492.795      19276.193     -387.34933    
   6059000   274.64874      366.00577      18512.774      19271.744     -613.0197     
   6060000   291.69174      372.05253      18495.619      19285.021     -288.82936    
   6061000   287.95853      376.79983      18513.089      19301.896     -175.93109    
   6062000   301.43637      367.45385      18522.241      19320.986     -555.92383    
   6063000   322.52027      370.11616      18503.716      19335.291     -492.16275    
   6064000   303.47621      376.62798      18526.348      19337.187     -303.66019    
   6065000   296.42944      374.05222      18521.552      19319.732     -211.32959    
   6066000   313.45705      370.82298      18505.004      19324.318     -379.3284     
   6067000   292.8999       373.76541      18524.415      19317.258     -276.80744    
   6068000   293.78336      371.43705      18507.418      19299.197     -508.27484    
   6069000   290.15785      381.30693      18493.976      19290.438     -69.623827    
   6070000   282.54232      368.41002      18513.363      19286.032     -500.71207    
   6071000   295.87191      368.18636      18492.548      19284.065     -524.24       
   6072000   295.70163      376.9676       18490.266      19290.32      -183.84016    
   6073000   308.96033      374.18089      18497.196      19313.434     -271.4255     
   6074000   299.88512      369.8084       18538.783      19337.664     -429.01878    
   6075000   300.32209      371.90896      18539.449      19341.055     -456.50257    
   6076000   308.19755      378.96083      18521.617      19341.543     -303.0181     
   6077000   299.19667      380.1232       18527.877      19336.088     -127.56632    
   6078000   304.58973      365.27332      18523.048      19324.124     -687.07771    
   6079000   317.09749      374.93313      18479.993      19308.626     -190.96545    
   6080000   301.85423      377.72017      18481.838      19291.447     -211.67295    
Loop time of 12.272 on 4 procs for 50000 steps with 481 atoms

Performance: 17.601 ns/day, 1.364 hours/ns, 4074.308 timesteps/s, 1.960 Matom-step/s
99.0% CPU use with 4 MPI tasks x no OpenMP threads

MPI task timing breakdown:
Section |  min time  |  avg time  |  max time  |%varavg| %total
---------------------------------------------------------------
Pair    | 1.8226     | 3.0827     | 3.9885     |  50.6 | 25.12
Bond    | 3.9741     | 4.4293     | 4.9284     |  18.1 | 36.09
Neigh   | 0.066067   | 0.066078   | 0.066089   |   0.0 |  0.54
Comm    | 2.8824     | 4.144      | 5.8517     |  54.6 | 33.77
Output  | 0.0016591  | 0.0024942  | 0.002808   |   1.0 |  0.02
Modify  | 0.36198    | 0.36447    | 0.36816    |   0.4 |  2.97
Other   |            | 0.1831     |            |       |  1.49

Nlocal:         120.25 ave         130 max         111 min
Histogram: 2 0 0 0 0 0 0 0 1 1
Nghost:        4177.25 ave        4205 max        4148 min
Histogram: 1 0 1 0 0 0 0 0 1 1
Neighs:              0 ave           0 max           0 min
Histogram: 4 0 0 0 0 0 0 0 0 0

Total # of neighbors = 0
Ave neighs/atom = 0
Ave special neighs/atom = 15.567568
Neighbor list builds = 72
Dangerous builds = 0
unfix           myat1
next            cpt
jump            SELF loop

Total wall time: 0:25:48
